128

C       0.000000000000000      0.000000000000000      0.000000000000000
Si      1.094845745720421      1.094845745720421      1.094845745720421
C       2.189691491440842      2.189691491440842      0.000000000000000
Si      3.284537237161263      3.284537237161263      1.094845745720421
C       4.379382982881684      4.379382982881684      0.000000000000000
Si      5.474228728602105      5.474228728602105      1.094845745720421
C       6.569074474322527      6.569074474322527      0.000000000000000
Si      7.663920220042947      7.663920220042947      1.094845745720421
C       2.189691491440842      0.000000000000000      2.189691491440842
Si      3.284537237161263      1.094845745720421      3.284537237161263
C       4.379382982881684      2.189691491440842      2.189691491440842
Si      5.474228728602105      3.284537237161263      3.284537237161263
C       6.569074474322527      4.379382982881684      2.189691491440842
Si      7.663920220042947      5.474228728602105      3.284537237161263
C       8.758765965763368      6.569074474322527      2.189691491440842
Si      9.853611711483790      7.663920220042947      3.284537237161263
C       4.379382982881684      0.000000000000000      4.379382982881684
Si      5.474228728602105      1.094845745720421      5.474228728602105
C       6.569074474322527      2.189691491440842      4.379382982881684
Si      7.663920220042947      3.284537237161263      5.474228728602105
C       8.758765965763368      4.379382982881684      4.379382982881684
Si      9.853611711483790      5.474228728602105      5.474228728602105
C      10.948457457204210      6.569074474322527      4.379382982881684
Si     12.043303202924632      7.663920220042947      5.474228728602105
C       6.569074474322527      0.000000000000000      6.569074474322527
Si      7.663920220042947      1.094845745720421      7.663920220042947
C       8.758765965763368      2.189691491440842      6.569074474322527
Si      9.853611711483790      3.284537237161263      7.663920220042947
C      10.948457457204210      4.379382982881684      6.569074474322527
Si     12.043303202924632      5.474228728602105      7.663920220042947
C      13.138148948645053      6.569074474322527      6.569074474322527
Si     14.232994694365475      7.663920220042947      7.663920220042947
C       0.000000000000000      2.189691491440842      2.189691491440842
Si      1.094845745720421      3.284537237161263      3.284537237161263
C       2.189691491440842      4.379382982881684      2.189691491440842
Si      3.284537237161263      5.474228728602105      3.284537237161263
C       4.379382982881684      6.569074474322527      2.189691491440842
Si      5.474228728602105      7.663920220042947      3.284537237161263
C       6.569074474322527      8.758765965763368      2.189691491440842
Si      7.663920220042947      9.853611711483790      3.284537237161263
C       2.189691491440842      2.189691491440842      4.379382982881684
Si      3.284537237161263      3.284537237161263      5.474228728602105
C       4.379382982881684      4.379382982881684      4.379382982881684
Si      5.474228728602105      5.474228728602105      5.474228728602105
C       6.569074474322527      6.569074474322527      4.379382982881684
Si      7.663920220042947      7.663920220042947      5.474228728602105
C       8.758765965763368      8.758765965763368      4.379382982881684
Si      9.853611711483790      9.853611711483790      5.474228728602105
C       4.379382982881684      2.189691491440842      6.569074474322527
Si      5.474228728602105      3.284537237161263      7.663920220042947
C       6.569074474322527      4.379382982881684      6.569074474322527
Si      7.663920220042947      5.474228728602105      7.663920220042947
C       8.758765965763368      6.569074474322527      6.569074474322527
Si      9.853611711483790      7.663920220042947      7.663920220042947
C      10.948457457204210      8.758765965763368      6.569074474322527
Si     12.043303202924632      9.853611711483790      7.663920220042947
C       6.569074474322527      2.189691491440842      8.758765965763368
Si      7.663920220042947      3.284537237161263      9.853611711483790
C       8.758765965763368      4.379382982881684      8.758765965763368
Si      9.853611711483790      5.474228728602105      9.853611711483790
C      10.948457457204210      6.569074474322527      8.758765965763368
Si     12.043303202924632      7.663920220042947      9.853611711483790
C      13.138148948645053      8.758765965763368      8.758765965763368
Si     14.232994694365475      9.853611711483790      9.853611711483790
C       0.000000000000000      4.379382982881684      4.379382982881684
Si      1.094845745720421      5.474228728602105      5.474228728602105
C       2.189691491440842      6.569074474322527      4.379382982881684
Si      3.284537237161263      7.663920220042947      5.474228728602105
C       4.379382982881684      8.758765965763368      4.379382982881684
Si      5.474228728602105      9.853611711483790      5.474228728602105
C       6.569074474322527     10.948457457204210      4.379382982881684
Si      7.663920220042947     12.043303202924632      5.474228728602105
C       2.189691491440842      4.379382982881684      6.569074474322527
Si      3.284537237161263      5.474228728602105      7.663920220042947
C       4.379382982881684      6.569074474322527      6.569074474322527
Si      5.474228728602105      7.663920220042947      7.663920220042947
C       6.569074474322527      8.758765965763368      6.569074474322527
Si      7.663920220042947      9.853611711483790      7.663920220042947
C       8.758765965763368     10.948457457204210      6.569074474322527
Si      9.853611711483790     12.043303202924632      7.663920220042947
C       4.379382982881684      4.379382982881684      8.758765965763368
Si      5.474228728602105      5.474228728602105      9.853611711483790
C       6.569074474322527      6.569074474322527      8.758765965763368
Si      7.663920220042947      7.663920220042947      9.853611711483790
C       8.758765965763368      8.758765965763368      8.758765965763368
Si      9.853611711483790      9.853611711483790      9.853611711483790
C      10.948457457204210     10.948457457204210      8.758765965763368
Si     12.043303202924632     12.043303202924632      9.853611711483790
C       6.569074474322527      4.379382982881684     10.948457457204210
Si      7.663920220042947      5.474228728602105     12.043303202924632
C       8.758765965763368      6.569074474322527     10.948457457204210
Si      9.853611711483790      7.663920220042947     12.043303202924632
C      10.948457457204210      8.758765965763368     10.948457457204210
Si     12.043303202924632      9.853611711483790     12.043303202924632
C      13.138148948645053     10.948457457204210     10.948457457204210
Si     14.232994694365475     12.043303202924632     12.043303202924632
C       0.000000000000000      6.569074474322527      6.569074474322527
Si      1.094845745720421      7.663920220042947      7.663920220042947
C       2.189691491440842      8.758765965763368      6.569074474322527
Si      3.284537237161263      9.853611711483790      7.663920220042947
C       4.379382982881684     10.948457457204210      6.569074474322527
Si      5.474228728602105     12.043303202924632      7.663920220042947
C       6.569074474322527     13.138148948645053      6.569074474322527
Si      7.663920220042947     14.232994694365475      7.663920220042947
C       2.189691491440842      6.569074474322527      8.758765965763368
Si      3.284537237161263      7.663920220042947      9.853611711483790
C       4.379382982881684      8.758765965763368      8.758765965763368
Si      5.474228728602105      9.853611711483790      9.853611711483790
C       6.569074474322527     10.948457457204210      8.758765965763368
Si      7.663920220042947     12.043303202924632      9.853611711483790
C       8.758765965763368     13.138148948645053      8.758765965763368
Si      9.853611711483790     14.232994694365475      9.853611711483790
C       4.379382982881684      6.569074474322527     10.948457457204210
Si      5.474228728602105      7.663920220042947     12.043303202924632
C       6.569074474322527      8.758765965763368     10.948457457204210
Si      7.663920220042947      9.853611711483790     12.043303202924632
C       8.758765965763368     10.948457457204210     10.948457457204210
Si      9.853611711483790     12.043303202924632     12.043303202924632
C      10.948457457204210     13.138148948645053     10.948457457204210
Si     12.043303202924632     14.232994694365475     12.043303202924632
C       6.569074474322527      6.569074474322527     13.138148948645053
Si      7.663920220042947      7.663920220042947     14.232994694365475
C       8.758765965763368      8.758765965763368     13.138148948645053
Si      9.853611711483790      9.853611711483790     14.232994694365475
C      10.948457457204210     10.948457457204210     13.138148948645053
Si     12.043303202924632     12.043303202924632     14.232994694365475
C      13.138148948645053     13.138148948645053     13.138148948645053
Si     14.232994694365475     14.232994694365475     14.232994694365475
128

C       0.000000000000000      0.013241150502576     -0.036798855948855
Si      1.094845745720421      1.089183197916704      1.110582692513069
C       2.189691491440842      2.202932641943418     -0.036798855948855
Si      3.284537237161263      3.278874689357547      1.110582692513069
C       4.379382982881684      4.392624133384260     -0.036798855948855
Si      5.474228728602105      5.468566180798388      1.110582692513069
C       6.569074474322527      6.582315624825102     -0.036798855948855
Si      7.663920220042947      7.658257672239230      1.110582692513069
C       2.189691491440842      0.013241150502576      2.152892635491987
Si      3.284537237161263      1.089183197916704      3.300274183953911
C       4.379382982881684      2.202932641943418      2.152892635491987
Si      5.474228728602105      3.278874689357547      3.300274183953911
C       6.569074474322527      4.392624133384260      2.152892635491987
Si      7.663920220042947      5.468566180798388      3.300274183953911
C       8.758765965763368      6.582315624825102      2.152892635491987
Si      9.853611711483790      7.658257672239230      3.300274183953911
C       4.379382982881684      0.013241150502576      4.342584126932829
Si      5.474228728602105      1.089183197916704      5.489965675394753
C       6.569074474322527      2.202932641943418      4.342584126932829
Si      7.663920220042947      3.278874689357547      5.489965675394753
C       8.758765965763368      4.392624133384260      4.342584126932829
Si      9.853611711483790      5.468566180798388      5.489965675394753
C      10.948457457204210      6.582315624825102      4.342584126932829
Si     12.043303202924632      7.658257672239230      5.489965675394753
C       6.569074474322527      0.013241150502576      6.532275618373672
Si      7.663920220042947      1.089183197916704      7.679657166835596
C       8.758765965763368      2.202932641943418      6.532275618373672
Si      9.853611711483790      3.278874689357547      7.679657166835596
C      10.948457457204210      4.392624133384260      6.532275618373672
Si     12.043303202924632      5.468566180798388      7.679657166835596
C      13.138148948645053      6.582315624825102      6.532275618373672
Si     14.232994694365475      7.658257672239230      7.679657166835596
C       0.000000000000000      2.202932641943418      2.152892635491987
Si      1.094845745720421      3.278874689357547      3.300274183953911
C       2.189691491440842      4.392624133384260      2.152892635491987
Si      3.284537237161263      5.468566180798388      3.300274183953911
C       4.379382982881684      6.582315624825102      2.152892635491987
Si      5.474228728602105      7.658257672239230      3.300274183953911
C       6.569074474322527      8.772007116265945      2.152892635491987
Si      7.663920220042947      9.847949163680074      3.300274183953911
C       2.189691491440842      2.202932641943418      4.342584126932829
Si      3.284537237161263      3.278874689357547      5.489965675394753
C       4.379382982881684      4.392624133384260      4.342584126932829
Si      5.474228728602105      5.468566180798388      5.489965675394753
C       6.569074474322527      6.582315624825102      4.342584126932829
Si      7.663920220042947      7.658257672239230      5.489965675394753
C       8.758765965763368      8.772007116265945      4.342584126932829
Si      9.853611711483790      9.847949163680074      5.489965675394753
C       4.379382982881684      2.202932641943418      6.532275618373672
Si      5.474228728602105      3.278874689357547      7.679657166835596
C       6.569074474322527      4.392624133384260      6.532275618373672
Si      7.663920220042947      5.468566180798388      7.679657166835596
C       8.758765965763368      6.582315624825102      6.532275618373672
Si      9.853611711483790      7.658257672239230      7.679657166835596
C      10.948457457204210      8.772007116265945      6.532275618373672
Si     12.043303202924632      9.847949163680074      7.679657166835596
C       6.569074474322527      2.202932641943418      8.721967109814512
Si      7.663920220042947      3.278874689357547      9.869348658276438
C       8.758765965763368      4.392624133384260      8.721967109814512
Si      9.853611711483790      5.468566180798388      9.869348658276438
C      10.948457457204210      6.582315624825102      8.721967109814512
Si     12.043303202924632      7.658257672239230      9.869348658276438
C      13.138148948645053      8.772007116265945      8.721967109814512
Si     14.232994694365475      9.847949163680074      9.869348658276438
C       0.000000000000000      4.392624133384260      4.342584126932829
Si      1.094845745720421      5.468566180798388      5.489965675394753
C       2.189691491440842      6.582315624825102      4.342584126932829
Si      3.284537237161263      7.658257672239230      5.489965675394753
C       4.379382982881684      8.772007116265945      4.342584126932829
Si      5.474228728602105      9.847949163680074      5.489965675394753
C       6.569074474322527     10.961698607706786      4.342584126932829
Si      7.663920220042947     12.037640655120915      5.489965675394753
C       2.189691491440842      4.392624133384260      6.532275618373672
Si      3.284537237161263      5.468566180798388      7.679657166835596
C       4.379382982881684      6.582315624825102      6.532275618373672
Si      5.474228728602105      7.658257672239230      7.679657166835596
C       6.569074474322527      8.772007116265945      6.532275618373672
Si      7.663920220042947      9.847949163680074      7.679657166835596
C       8.758765965763368     10.961698607706786      6.532275618373672
Si      9.853611711483790     12.037640655120915      7.679657166835596
C       4.379382982881684      4.392624133384260      8.721967109814512
Si      5.474228728602105      5.468566180798388      9.869348658276438
C       6.569074474322527      6.582315624825102      8.721967109814512
Si      7.663920220042947      7.658257672239230      9.869348658276438
C       8.758765965763368      8.772007116265945      8.721967109814512
Si      9.853611711483790      9.847949163680074      9.869348658276438
C      10.948457457204210     10.961698607706786      8.721967109814512
Si     12.043303202924632     12.037640655120915      9.869348658276438
C       6.569074474322527      4.392624133384260     10.911658601255354
Si      7.663920220042947      5.468566180798388     12.059040149717280
C       8.758765965763368      6.582315624825102     10.911658601255354
Si      9.853611711483790      7.658257672239230     12.059040149717280
C      10.948457457204210      8.772007116265945     10.911658601255354
Si     12.043303202924632      9.847949163680074     12.059040149717280
C      13.138148948645053     10.961698607706786     10.911658601255354
Si     14.232994694365475     12.037640655120915     12.059040149717280
C       0.000000000000000      6.582315624825102      6.532275618373672
Si      1.094845745720421      7.658257672239230      7.679657166835596
C       2.189691491440842      8.772007116265945      6.532275618373672
Si      3.284537237161263      9.847949163680074      7.679657166835596
C       4.379382982881684     10.961698607706786      6.532275618373672
Si      5.474228728602105     12.037640655120915      7.679657166835596
C       6.569074474322527     13.151390099147630      6.532275618373672
Si      7.663920220042947     14.227332146561759      7.679657166835596
C       2.189691491440842      6.582315624825102      8.721967109814512
Si      3.284537237161263      7.658257672239230      9.869348658276438
C       4.379382982881684      8.772007116265945      8.721967109814512
Si      5.474228728602105      9.847949163680074      9.869348658276438
C       6.569074474322527     10.961698607706786      8.721967109814512
Si      7.663920220042947     12.037640655120915      9.869348658276438
C       8.758765965763368     13.151390099147630      8.721967109814512
Si      9.853611711483790     14.227332146561759      9.869348658276438
C       4.379382982881684      6.582315624825102     10.911658601255354
Si      5.474228728602105      7.658257672239230     12.059040149717280
C       6.569074474322527      8.772007116265945     10.911658601255354
Si      7.663920220042947      9.847949163680074     12.059040149717280
C       8.758765965763368     10.961698607706786     10.911658601255354
Si      9.853611711483790     12.037640655120915     12.059040149717280
C      10.948457457204210     13.151390099147630     10.911658601255354
Si     12.043303202924632     14.227332146561759     12.059040149717280
C       6.569074474322527      6.582315624825102     13.101350092696197
Si      7.663920220042947      7.658257672239230     14.248731641158123
C       8.758765965763368      8.772007116265945     13.101350092696197
Si      9.853611711483790      9.847949163680074     14.248731641158123
C      10.948457457204210     10.961698607706786     13.101350092696197
Si     12.043303202924632     12.037640655120915     14.248731641158123
C      13.138148948645053     13.151390099147630     13.101350092696197
Si     14.232994694365475     14.227332146561759     14.248731641158123
128

C       0.000000000000000      0.026156259934919     -0.072691601935848
Si      1.094845745720421      1.083660080832834      1.125932143447750
C       2.189691491440842      2.215847751375761     -0.072691601935848
Si      3.284537237161263      3.273351572273676      1.125932143447750
C       4.379382982881684      4.405539242816603     -0.072691601935848
Si      5.474228728602105      5.463043063714518      1.125932143447750
C       6.569074474322527      6.595230734257446     -0.072691601935848
Si      7.663920220042947      7.652734555155360      1.125932143447750
C       2.189691491440842      0.026156259934919      2.116999889504994
Si      3.284537237161263      1.083660080832834      3.315623634888592
C       4.379382982881684      2.215847751375761      2.116999889504994
Si      5.474228728602105      3.273351572273676      3.315623634888592
C       6.569074474322527      4.405539242816603      2.116999889504994
Si      7.663920220042947      5.463043063714518      3.315623634888592
C       8.758765965763368      6.595230734257446      2.116999889504994
Si      9.853611711483790      7.652734555155360      3.315623634888592
C       4.379382982881684      0.026156259934919      4.306691380945836
Si      5.474228728602105      1.083660080832834      5.505315126329434
C       6.569074474322527      2.215847751375761      4.306691380945836
Si      7.663920220042947      3.273351572273676      5.505315126329434
C       8.758765965763368      4.405539242816603      4.306691380945836
Si      9.853611711483790      5.463043063714518      5.505315126329434
C      10.948457457204210      6.595230734257446      4.306691380945836
Si     12.043303202924632      7.652734555155360      5.505315126329434
C       6.569074474322527      0.026156259934919      6.496382872386678
Si      7.663920220042947      1.083660080832834      7.695006617770276
C       8.758765965763368      2.215847751375761      6.496382872386678
Si      9.853611711483790      3.273351572273676      7.695006617770276
C      10.948457457204210      4.405539242816603      6.496382872386678
Si     12.043303202924632      5.463043063714518      7.695006617770276
C      13.138148948645053      6.595230734257446      6.496382872386678
Si     14.232994694365475      7.652734555155360      7.695006617770276
C       0.000000000000000      2.215847751375761      2.116999889504994
Si      1.094845745720421      3.273351572273676      3.315623634888592
C       2.189691491440842      4.405539242816603      2.116999889504994
Si      3.284537237161263      5.463043063714518      3.315623634888592
C       4.379382982881684      6.595230734257446      2.116999889504994
Si      5.474228728602105      7.652734555155360      3.315623634888592
C       6.569074474322527      8.784922225698288      2.116999889504994
Si      7.663920220042947      9.842426046596202      3.315623634888592
C       2.189691491440842      2.215847751375761      4.306691380945836
Si      3.284537237161263      3.273351572273676      5.505315126329434
C       4.379382982881684      4.405539242816603      4.306691380945836
Si      5.474228728602105      5.463043063714518      5.505315126329434
C       6.569074474322527      6.595230734257446      4.306691380945836
Si      7.663920220042947      7.652734555155360      5.505315126329434
C       8.758765965763368      8.784922225698288      4.306691380945836
Si      9.853611711483790      9.842426046596202      5.505315126329434
C       4.379382982881684      2.215847751375761      6.496382872386678
Si      5.474228728602105      3.273351572273676      7.695006617770276
C       6.569074474322527      4.405539242816603      6.496382872386678
Si      7.663920220042947      5.463043063714518      7.695006617770276
C       8.758765965763368      6.595230734257446      6.496382872386678
Si      9.853611711483790      7.652734555155360      7.695006617770276
C      10.948457457204210      8.784922225698288      6.496382872386678
Si     12.043303202924632      9.842426046596202      7.695006617770276
C       6.569074474322527      2.215847751375761      8.686074363827521
Si      7.663920220042947      3.273351572273676      9.884698109211119
C       8.758765965763368      4.405539242816603      8.686074363827521
Si      9.853611711483790      5.463043063714518      9.884698109211119
C      10.948457457204210      6.595230734257446      8.686074363827521
Si     12.043303202924632      7.652734555155360      9.884698109211119
C      13.138148948645053      8.784922225698288      8.686074363827521
Si     14.232994694365475      9.842426046596202      9.884698109211119
C       0.000000000000000      4.405539242816603      4.306691380945836
Si      1.094845745720421      5.463043063714518      5.505315126329434
C       2.189691491440842      6.595230734257446      4.306691380945836
Si      3.284537237161263      7.652734555155360      5.505315126329434
C       4.379382982881684      8.784922225698288      4.306691380945836
Si      5.474228728602105      9.842426046596202      5.505315126329434
C       6.569074474322527     10.974613717139128      4.306691380945836
Si      7.663920220042947     12.032117538037044      5.505315126329434
C       2.189691491440842      4.405539242816603      6.496382872386678
Si      3.284537237161263      5.463043063714518      7.695006617770276
C       4.379382982881684      6.595230734257446      6.496382872386678
Si      5.474228728602105      7.652734555155360      7.695006617770276
C       6.569074474322527      8.784922225698288      6.496382872386678
Si      7.663920220042947      9.842426046596202      7.695006617770276
C       8.758765965763368     10.974613717139128      6.496382872386678
Si      9.853611711483790     12.032117538037044      7.695006617770276
C       4.379382982881684      4.405539242816603      8.686074363827521
Si      5.474228728602105      5.463043063714518      9.884698109211119
C       6.569074474322527      6.595230734257446      8.686074363827521
Si      7.663920220042947      7.652734555155360      9.884698109211119
C       8.758765965763368      8.784922225698288      8.686074363827521
Si      9.853611711483790      9.842426046596202      9.884698109211119
C      10.948457457204210     10.974613717139128      8.686074363827521
Si     12.043303202924632     12.032117538037044      9.884698109211119
C       6.569074474322527      4.405539242816603     10.875765855268362
Si      7.663920220042947      5.463043063714518     12.074389600651960
C       8.758765965763368      6.595230734257446     10.875765855268362
Si      9.853611711483790      7.652734555155360     12.074389600651960
C      10.948457457204210      8.784922225698288     10.875765855268362
Si     12.043303202924632      9.842426046596202     12.074389600651960
C      13.138148948645053     10.974613717139128     10.875765855268362
Si     14.232994694365475     12.032117538037044     12.074389600651960
C       0.000000000000000      6.595230734257446      6.496382872386678
Si      1.094845745720421      7.652734555155360      7.695006617770276
C       2.189691491440842      8.784922225698288      6.496382872386678
Si      3.284537237161263      9.842426046596202      7.695006617770276
C       4.379382982881684     10.974613717139128      6.496382872386678
Si      5.474228728602105     12.032117538037044      7.695006617770276
C       6.569074474322527     13.164305208579972      6.496382872386678
Si      7.663920220042947     14.221809029477887      7.695006617770276
C       2.189691491440842      6.595230734257446      8.686074363827521
Si      3.284537237161263      7.652734555155360      9.884698109211119
C       4.379382982881684      8.784922225698288      8.686074363827521
Si      5.474228728602105      9.842426046596202      9.884698109211119
C       6.569074474322527     10.974613717139128      8.686074363827521
Si      7.663920220042947     12.032117538037044      9.884698109211119
C       8.758765965763368     13.164305208579972      8.686074363827521
Si      9.853611711483790     14.221809029477887      9.884698109211119
C       4.379382982881684      6.595230734257446     10.875765855268362
Si      5.474228728602105      7.652734555155360     12.074389600651960
C       6.569074474322527      8.784922225698288     10.875765855268362
Si      7.663920220042947      9.842426046596202     12.074389600651960
C       8.758765965763368     10.974613717139128     10.875765855268362
Si      9.853611711483790     12.032117538037044     12.074389600651960
C      10.948457457204210     13.164305208579972     10.875765855268362
Si     12.043303202924632     14.221809029477887     12.074389600651960
C       6.569074474322527      6.595230734257446     13.065457346709206
Si      7.663920220042947      7.652734555155360     14.264081092092804
C       8.758765965763368      8.784922225698288     13.065457346709206
Si      9.853611711483790      9.842426046596202     14.264081092092804
C      10.948457457204210     10.974613717139128     13.065457346709206
Si     12.043303202924632     12.032117538037044     14.264081092092804
C      13.138148948645053     13.164305208579972     13.065457346709206
Si     14.232994694365475     14.221809029477887     14.264081092092804
128

C       0.000000000000000      0.038427315440015     -0.106794439433586
Si      1.094845745720421      1.078412391941589      1.140516144100545
C       2.189691491440842      2.228118806880857     -0.106794439433586
Si      3.284537237161263      3.268103883382431      1.140516144100545
C       4.379382982881684      4.417810298321699     -0.106794439433586
Si      5.474228728602105      5.457795374823273      1.140516144100545
C       6.569074474322527      6.607501789762542     -0.106794439433586
Si      7.663920220042947      7.647486866264115      1.140516144100545
C       2.189691491440842      0.038427315440015      2.082897052007256
Si      3.284537237161263      1.078412391941589      3.330207635541387
C       4.379382982881684      2.228118806880857      2.082897052007256
Si      5.474228728602105      3.268103883382431      3.330207635541387
C       6.569074474322527      4.417810298321699      2.082897052007256
Si      7.663920220042947      5.457795374823273      3.330207635541387
C       8.758765965763368      6.607501789762542      2.082897052007256
Si      9.853611711483790      7.647486866264115      3.330207635541387
C       4.379382982881684      0.038427315440015      4.272588543448099
Si      5.474228728602105      1.078412391941589      5.519899126982229
C       6.569074474322527      2.228118806880857      4.272588543448099
Si      7.663920220042947      3.268103883382431      5.519899126982229
C       8.758765965763368      4.417810298321699      4.272588543448099
Si      9.853611711483790      5.457795374823273      5.519899126982229
C      10.948457457204210      6.607501789762542      4.272588543448099
Si     12.043303202924632      7.647486866264115      5.519899126982229
C       6.569074474322527      0.038427315440015      6.462280034888941
Si      7.663920220042947      1.078412391941589      7.709590618423071
C       8.758765965763368      2.228118806880857      6.462280034888941
Si      9.853611711483790      3.268103883382431      7.709590618423071
C      10.948457457204210      4.417810298321699      6.462280034888941
Si     12.043303202924632      5.457795374823273      7.709590618423071
C      13.138148948645053      6.607501789762542      6.462280034888941
Si     14.232994694365475      7.647486866264115      7.709590618423071
C       0.000000000000000      2.228118806880857      2.082897052007256
Si      1.094845745720421      3.268103883382431      3.330207635541387
C       2.189691491440842      4.417810298321699      2.082897052007256
Si      3.284537237161263      5.457795374823273      3.330207635541387
C       4.379382982881684      6.607501789762542      2.082897052007256
Si      5.474228728602105      7.647486866264115      3.330207635541387
C       6.569074474322527      8.797193281203384      2.082897052007256
Si      7.663920220042947      9.837178357704959      3.330207635541387
C       2.189691491440842      2.228118806880857      4.272588543448099
Si      3.284537237161263      3.268103883382431      5.519899126982229
C       4.379382982881684      4.417810298321699      4.272588543448099
Si      5.474228728602105      5.457795374823273      5.519899126982229
C       6.569074474322527      6.607501789762542      4.272588543448099
Si      7.663920220042947      7.647486866264115      5.519899126982229
C       8.758765965763368      8.797193281203384      4.272588543448099
Si      9.853611711483790      9.837178357704959      5.519899126982229
C       4.379382982881684      2.228118806880857      6.462280034888941
Si      5.474228728602105      3.268103883382431      7.709590618423071
C       6.569074474322527      4.417810298321699      6.462280034888941
Si      7.663920220042947      5.457795374823273      7.709590618423071
C       8.758765965763368      6.607501789762542      6.462280034888941
Si      9.853611711483790      7.647486866264115      7.709590618423071
C      10.948457457204210      8.797193281203384      6.462280034888941
Si     12.043303202924632      9.837178357704959      7.709590618423071
C       6.569074474322527      2.228118806880857      8.651971526329783
Si      7.663920220042947      3.268103883382431      9.899282109863913
C       8.758765965763368      4.417810298321699      8.651971526329783
Si      9.853611711483790      5.457795374823273      9.899282109863913
C      10.948457457204210      6.607501789762542      8.651971526329783
Si     12.043303202924632      7.647486866264115      9.899282109863913
C      13.138148948645053      8.797193281203384      8.651971526329783
Si     14.232994694365475      9.837178357704959      9.899282109863913
C       0.000000000000000      4.417810298321699      4.272588543448099
Si      1.094845745720421      5.457795374823273      5.519899126982229
C       2.189691491440842      6.607501789762542      4.272588543448099
Si      3.284537237161263      7.647486866264115      5.519899126982229
C       4.379382982881684      8.797193281203384      4.272588543448099
Si      5.474228728602105      9.837178357704959      5.519899126982229
C       6.569074474322527     10.986884772644226      4.272588543448099
Si      7.663920220042947     12.026869849145800      5.519899126982229
C       2.189691491440842      4.417810298321699      6.462280034888941
Si      3.284537237161263      5.457795374823273      7.709590618423071
C       4.379382982881684      6.607501789762542      6.462280034888941
Si      5.474228728602105      7.647486866264115      7.709590618423071
C       6.569074474322527      8.797193281203384      6.462280034888941
Si      7.663920220042947      9.837178357704959      7.709590618423071
C       8.758765965763368     10.986884772644226      6.462280034888941
Si      9.853611711483790     12.026869849145800      7.709590618423071
C       4.379382982881684      4.417810298321699      8.651971526329783
Si      5.474228728602105      5.457795374823273      9.899282109863913
C       6.569074474322527      6.607501789762542      8.651971526329783
Si      7.663920220042947      7.647486866264115      9.899282109863913
C       8.758765965763368      8.797193281203384      8.651971526329783
Si      9.853611711483790      9.837178357704959      9.899282109863913
C      10.948457457204210     10.986884772644226      8.651971526329783
Si     12.043303202924632     12.026869849145800      9.899282109863913
C       6.569074474322527      4.417810298321699     10.841663017770625
Si      7.663920220042947      5.457795374823273     12.088973601304755
C       8.758765965763368      6.607501789762542     10.841663017770625
Si      9.853611711483790      7.647486866264115     12.088973601304755
C      10.948457457204210      8.797193281203384     10.841663017770625
Si     12.043303202924632      9.837178357704959     12.088973601304755
C      13.138148948645053     10.986884772644226     10.841663017770625
Si     14.232994694365475     12.026869849145800     12.088973601304755
C       0.000000000000000      6.607501789762542      6.462280034888941
Si      1.094845745720421      7.647486866264115      7.709590618423071
C       2.189691491440842      8.797193281203384      6.462280034888941
Si      3.284537237161263      9.837178357704959      7.709590618423071
C       4.379382982881684     10.986884772644226      6.462280034888941
Si      5.474228728602105     12.026869849145800      7.709590618423071
C       6.569074474322527     13.176576264085069      6.462280034888941
Si      7.663920220042947     14.216561340586644      7.709590618423071
C       2.189691491440842      6.607501789762542      8.651971526329783
Si      3.284537237161263      7.647486866264115      9.899282109863913
C       4.379382982881684      8.797193281203384      8.651971526329783
Si      5.474228728602105      9.837178357704959      9.899282109863913
C       6.569074474322527     10.986884772644226      8.651971526329783
Si      7.663920220042947     12.026869849145800      9.899282109863913
C       8.758765965763368     13.176576264085069      8.651971526329783
Si      9.853611711483790     14.216561340586644      9.899282109863913
C       4.379382982881684      6.607501789762542     10.841663017770625
Si      5.474228728602105      7.647486866264115     12.088973601304755
C       6.569074474322527      8.797193281203384     10.841663017770625
Si      7.663920220042947      9.837178357704959     12.088973601304755
C       8.758765965763368     10.986884772644226     10.841663017770625
Si      9.853611711483790     12.026869849145800     12.088973601304755
C      10.948457457204210     13.176576264085069     10.841663017770625
Si     12.043303202924632     14.216561340586644     12.088973601304755
C       6.569074474322527      6.607501789762542     13.031354509211468
Si      7.663920220042947      7.647486866264115     14.278665092745598
C       8.758765965763368      8.797193281203384     13.031354509211468
Si      9.853611711483790      9.837178357704959     14.278665092745598
C      10.948457457204210     10.986884772644226     13.031354509211468
Si     12.043303202924632     12.026869849145800     14.278665092745598
C      13.138148948645053     13.176576264085069     13.031354509211468
Si     14.232994694365475     14.216561340586644     14.278665092745598
128

C       0.000000000000000      0.049752162906030     -0.138267643402044
Si      1.094845745720421      1.073569346759553      1.153975587973859
C       2.189691491440842      2.239443654346871     -0.138267643402044
Si      3.284537237161263      3.263260838200396      1.153975587973859
C       4.379382982881684      4.429135145787714     -0.138267643402044
Si      5.474228728602105      5.452952329641238      1.153975587973859
C       6.569074474322527      6.618826637228556     -0.138267643402044
Si      7.663920220042947      7.642643821082080      1.153975587973859
C       2.189691491440842      0.049752162906030      2.051423848038798
Si      3.284537237161263      1.073569346759553      3.343667079414701
C       4.379382982881684      2.239443654346871      2.051423848038798
Si      5.474228728602105      3.263260838200396      3.343667079414701
C       6.569074474322527      4.429135145787714      2.051423848038798
Si      7.663920220042947      5.452952329641238      3.343667079414701
C       8.758765965763368      6.618826637228556      2.051423848038798
Si      9.853611711483790      7.642643821082080      3.343667079414701
C       4.379382982881684      0.049752162906030      4.241115339479641
Si      5.474228728602105      1.073569346759553      5.533358570855543
C       6.569074474322527      2.239443654346871      4.241115339479641
Si      7.663920220042947      3.263260838200396      5.533358570855543
C       8.758765965763368      4.429135145787714      4.241115339479641
Si      9.853611711483790      5.452952329641238      5.533358570855543
C      10.948457457204210      6.618826637228556      4.241115339479641
Si     12.043303202924632      7.642643821082080      5.533358570855543
C       6.569074474322527      0.049752162906030      6.430806830920483
Si      7.663920220042947      1.073569346759553      7.723050062296386
C       8.758765965763368      2.239443654346871      6.430806830920483
Si      9.853611711483790      3.263260838200396      7.723050062296386
C      10.948457457204210      4.429135145787714      6.430806830920483
Si     12.043303202924632      5.452952329641238      7.723050062296386
C      13.138148948645053      6.618826637228556      6.430806830920483
Si     14.232994694365475      7.642643821082080      7.723050062296386
C       0.000000000000000      2.239443654346871      2.051423848038798
Si      1.094845745720421      3.263260838200396      3.343667079414701
C       2.189691491440842      4.429135145787714      2.051423848038798
Si      3.284537237161263      5.452952329641238      3.343667079414701
C       4.379382982881684      6.618826637228556      2.051423848038798
Si      5.474228728602105      7.642643821082080      3.343667079414701
C       6.569074474322527      8.808518128669398      2.051423848038798
Si      7.663920220042947      9.832335312522922      3.343667079414701
C       2.189691491440842      2.239443654346871      4.241115339479641
Si      3.284537237161263      3.263260838200396      5.533358570855543
C       4.379382982881684      4.429135145787714      4.241115339479641
Si      5.474228728602105      5.452952329641238      5.533358570855543
C       6.569074474322527      6.618826637228556      4.241115339479641
Si      7.663920220042947      7.642643821082080      5.533358570855543
C       8.758765965763368      8.808518128669398      4.241115339479641
Si      9.853611711483790      9.832335312522922      5.533358570855543
C       4.379382982881684      2.239443654346871      6.430806830920483
Si      5.474228728602105      3.263260838200396      7.723050062296386
C       6.569074474322527      4.429135145787714      6.430806830920483
Si      7.663920220042947      5.452952329641238      7.723050062296386
C       8.758765965763368      6.618826637228556      6.430806830920483
Si      9.853611711483790      7.642643821082080      7.723050062296386
C      10.948457457204210      8.808518128669398      6.430806830920483
Si     12.043303202924632      9.832335312522922      7.723050062296386
C       6.569074474322527      2.239443654346871      8.620498322361325
Si      7.663920220042947      3.263260838200396      9.912741553737227
C       8.758765965763368      4.429135145787714      8.620498322361325
Si      9.853611711483790      5.452952329641238      9.912741553737227
C      10.948457457204210      6.618826637228556      8.620498322361325
Si     12.043303202924632      7.642643821082080      9.912741553737227
C      13.138148948645053      8.808518128669398      8.620498322361325
Si     14.232994694365475      9.832335312522922      9.912741553737227
C       0.000000000000000      4.429135145787714      4.241115339479641
Si      1.094845745720421      5.452952329641238      5.533358570855543
C       2.189691491440842      6.618826637228556      4.241115339479641
Si      3.284537237161263      7.642643821082080      5.533358570855543
C       4.379382982881684      8.808518128669398      4.241115339479641
Si      5.474228728602105      9.832335312522922      5.533358570855543
C       6.569074474322527     10.998209620110240      4.241115339479641
Si      7.663920220042947     12.022026803963763      5.533358570855543
C       2.189691491440842      4.429135145787714      6.430806830920483
Si      3.284537237161263      5.452952329641238      7.723050062296386
C       4.379382982881684      6.618826637228556      6.430806830920483
Si      5.474228728602105      7.642643821082080      7.723050062296386
C       6.569074474322527      8.808518128669398      6.430806830920483
Si      7.663920220042947      9.832335312522922      7.723050062296386
C       8.758765965763368     10.998209620110240      6.430806830920483
Si      9.853611711483790     12.022026803963763      7.723050062296386
C       4.379382982881684      4.429135145787714      8.620498322361325
Si      5.474228728602105      5.452952329641238      9.912741553737227
C       6.569074474322527      6.618826637228556      8.620498322361325
Si      7.663920220042947      7.642643821082080      9.912741553737227
C       8.758765965763368      8.808518128669398      8.620498322361325
Si      9.853611711483790      9.832335312522922      9.912741553737227
C      10.948457457204210     10.998209620110240      8.620498322361325
Si     12.043303202924632     12.022026803963763      9.912741553737227
C       6.569074474322527      4.429135145787714     10.810189813802166
Si      7.663920220042947      5.452952329641238     12.102433045178069
C       8.758765965763368      6.618826637228556     10.810189813802166
Si      9.853611711483790      7.642643821082080     12.102433045178069
C      10.948457457204210      8.808518128669398     10.810189813802166
Si     12.043303202924632      9.832335312522922     12.102433045178069
C      13.138148948645053     10.998209620110240     10.810189813802166
Si     14.232994694365475     12.022026803963763     12.102433045178069
C       0.000000000000000      6.618826637228556      6.430806830920483
Si      1.094845745720421      7.642643821082080      7.723050062296386
C       2.189691491440842      8.808518128669398      6.430806830920483
Si      3.284537237161263      9.832335312522922      7.723050062296386
C       4.379382982881684     10.998209620110240      6.430806830920483
Si      5.474228728602105     12.022026803963763      7.723050062296386
C       6.569074474322527     13.187901111551083      6.430806830920483
Si      7.663920220042947     14.211718295404607      7.723050062296386
C       2.189691491440842      6.618826637228556      8.620498322361325
Si      3.284537237161263      7.642643821082080      9.912741553737227
C       4.379382982881684      8.808518128669398      8.620498322361325
Si      5.474228728602105      9.832335312522922      9.912741553737227
C       6.569074474322527     10.998209620110240      8.620498322361325
Si      7.663920220042947     12.022026803963763      9.912741553737227
C       8.758765965763368     13.187901111551083      8.620498322361325
Si      9.853611711483790     14.211718295404607      9.912741553737227
C       4.379382982881684      6.618826637228556     10.810189813802166
Si      5.474228728602105      7.642643821082080     12.102433045178069
C       6.569074474322527      8.808518128669398     10.810189813802166
Si      7.663920220042947      9.832335312522922     12.102433045178069
C       8.758765965763368     10.998209620110240     10.810189813802166
Si      9.853611711483790     12.022026803963763     12.102433045178069
C      10.948457457204210     13.187901111551083     10.810189813802166
Si     12.043303202924632     14.211718295404607     12.102433045178069
C       6.569074474322527      6.618826637228556     12.999881305243010
Si      7.663920220042947      7.642643821082080     14.292124536618912
C       8.758765965763368      8.808518128669398     12.999881305243010
Si      9.853611711483790      9.832335312522922     14.292124536618912
C      10.948457457204210     10.998209620110240     12.999881305243010
Si     12.043303202924632     12.022026803963763     14.292124536618912
C      13.138148948645053     13.187901111551083     12.999881305243010
Si     14.232994694365475     14.211718295404607     14.292124536618912
128

C       0.000000000000000      0.059851947003336     -0.166336239105944
Si      1.094845745720421      1.069250197132254      1.165979058890198
C       2.189691491440842      2.249543438444177     -0.166336239105944
Si      3.284537237161263      3.258941688573096      1.165979058890198
C       4.379382982881684      4.439234929885020     -0.166336239105944
Si      5.474228728602105      5.448633180013938      1.165979058890198
C       6.569074474322527      6.628926421325862     -0.166336239105944
Si      7.663920220042947      7.638324671454781      1.165979058890198
C       2.189691491440842      0.059851947003336      2.023355252334897
Si      3.284537237161263      1.069250197132254      3.355670550331040
C       4.379382982881684      2.249543438444177      2.023355252334897
Si      5.474228728602105      3.258941688573096      3.355670550331040
C       6.569074474322527      4.439234929885020      2.023355252334897
Si      7.663920220042947      5.448633180013938      3.355670550331040
C       8.758765965763368      6.628926421325862      2.023355252334897
Si      9.853611711483790      7.638324671454781      3.355670550331040
C       4.379382982881684      0.059851947003336      4.213046743775740
Si      5.474228728602105      1.069250197132254      5.545362041771882
C       6.569074474322527      2.249543438444177      4.213046743775740
Si      7.663920220042947      3.258941688573096      5.545362041771882
C       8.758765965763368      4.439234929885020      4.213046743775740
Si      9.853611711483790      5.448633180013938      5.545362041771882
C      10.948457457204210      6.628926421325862      4.213046743775740
Si     12.043303202924632      7.638324671454781      5.545362041771882
C       6.569074474322527      0.059851947003336      6.402738235216582
Si      7.663920220042947      1.069250197132254      7.735053533212724
C       8.758765965763368      2.249543438444177      6.402738235216582
Si      9.853611711483790      3.258941688573096      7.735053533212724
C      10.948457457204210      4.439234929885020      6.402738235216582
Si     12.043303202924632      5.448633180013938      7.735053533212724
C      13.138148948645053      6.628926421325862      6.402738235216582
Si     14.232994694365475      7.638324671454781      7.735053533212724
C       0.000000000000000      2.249543438444177      2.023355252334897
Si      1.094845745720421      3.258941688573096      3.355670550331040
C       2.189691491440842      4.439234929885020      2.023355252334897
Si      3.284537237161263      5.448633180013938      3.355670550331040
C       4.379382982881684      6.628926421325862      2.023355252334897
Si      5.474228728602105      7.638324671454781      3.355670550331040
C       6.569074474322527      8.818617912766705      2.023355252334897
Si      7.663920220042947      9.828016162895622      3.355670550331040
C       2.189691491440842      2.249543438444177      4.213046743775740
Si      3.284537237161263      3.258941688573096      5.545362041771882
C       4.379382982881684      4.439234929885020      4.213046743775740
Si      5.474228728602105      5.448633180013938      5.545362041771882
C       6.569074474322527      6.628926421325862      4.213046743775740
Si      7.663920220042947      7.638324671454781      5.545362041771882
C       8.758765965763368      8.818617912766705      4.213046743775740
Si      9.853611711483790      9.828016162895622      5.545362041771882
C       4.379382982881684      2.249543438444177      6.402738235216582
Si      5.474228728602105      3.258941688573096      7.735053533212724
C       6.569074474322527      4.439234929885020      6.402738235216582
Si      7.663920220042947      5.448633180013938      7.735053533212724
C       8.758765965763368      6.628926421325862      6.402738235216582
Si      9.853611711483790      7.638324671454781      7.735053533212724
C      10.948457457204210      8.818617912766705      6.402738235216582
Si     12.043303202924632      9.828016162895622      7.735053533212724
C       6.569074474322527      2.249543438444177      8.592429726657423
Si      7.663920220042947      3.258941688573096      9.924745024653568
C       8.758765965763368      4.439234929885020      8.592429726657423
Si      9.853611711483790      5.448633180013938      9.924745024653568
C      10.948457457204210      6.628926421325862      8.592429726657423
Si     12.043303202924632      7.638324671454781      9.924745024653568
C      13.138148948645053      8.818617912766705      8.592429726657423
Si     14.232994694365475      9.828016162895622      9.924745024653568
C       0.000000000000000      4.439234929885020      4.213046743775740
Si      1.094845745720421      5.448633180013938      5.545362041771882
C       2.189691491440842      6.628926421325862      4.213046743775740
Si      3.284537237161263      7.638324671454781      5.545362041771882
C       4.379382982881684      8.818617912766705      4.213046743775740
Si      5.474228728602105      9.828016162895622      5.545362041771882
C       6.569074474322527     11.008309404207546      4.213046743775740
Si      7.663920220042947     12.017707654336464      5.545362041771882
C       2.189691491440842      4.439234929885020      6.402738235216582
Si      3.284537237161263      5.448633180013938      7.735053533212724
C       4.379382982881684      6.628926421325862      6.402738235216582
Si      5.474228728602105      7.638324671454781      7.735053533212724
C       6.569074474322527      8.818617912766705      6.402738235216582
Si      7.663920220042947      9.828016162895622      7.735053533212724
C       8.758765965763368     11.008309404207546      6.402738235216582
Si      9.853611711483790     12.017707654336464      7.735053533212724
C       4.379382982881684      4.439234929885020      8.592429726657423
Si      5.474228728602105      5.448633180013938      9.924745024653568
C       6.569074474322527      6.628926421325862      8.592429726657423
Si      7.663920220042947      7.638324671454781      9.924745024653568
C       8.758765965763368      8.818617912766705      8.592429726657423
Si      9.853611711483790      9.828016162895622      9.924745024653568
C      10.948457457204210     11.008309404207546      8.592429726657423
Si     12.043303202924632     12.017707654336464      9.924745024653568
C       6.569074474322527      4.439234929885020     10.782121218098265
Si      7.663920220042947      5.448633180013938     12.114436516094408
C       8.758765965763368      6.628926421325862     10.782121218098265
Si      9.853611711483790      7.638324671454781     12.114436516094408
C      10.948457457204210      8.818617912766705     10.782121218098265
Si     12.043303202924632      9.828016162895622     12.114436516094408
C      13.138148948645053     11.008309404207546     10.782121218098265
Si     14.232994694365475     12.017707654336464     12.114436516094408
C       0.000000000000000      6.628926421325862      6.402738235216582
Si      1.094845745720421      7.638324671454781      7.735053533212724
C       2.189691491440842      8.818617912766705      6.402738235216582
Si      3.284537237161263      9.828016162895622      7.735053533212724
C       4.379382982881684     11.008309404207546      6.402738235216582
Si      5.474228728602105     12.017707654336464      7.735053533212724
C       6.569074474322527     13.198000895648390      6.402738235216582
Si      7.663920220042947     14.207399145777307      7.735053533212724
C       2.189691491440842      6.628926421325862      8.592429726657423
Si      3.284537237161263      7.638324671454781      9.924745024653568
C       4.379382982881684      8.818617912766705      8.592429726657423
Si      5.474228728602105      9.828016162895622      9.924745024653568
C       6.569074474322527     11.008309404207546      8.592429726657423
Si      7.663920220042947     12.017707654336464      9.924745024653568
C       8.758765965763368     13.198000895648390      8.592429726657423
Si      9.853611711483790     14.207399145777307      9.924745024653568
C       4.379382982881684      6.628926421325862     10.782121218098265
Si      5.474228728602105      7.638324671454781     12.114436516094408
C       6.569074474322527      8.818617912766705     10.782121218098265
Si      7.663920220042947      9.828016162895622     12.114436516094408
C       8.758765965763368     11.008309404207546     10.782121218098265
Si      9.853611711483790     12.017707654336464     12.114436516094408
C      10.948457457204210     13.198000895648390     10.782121218098265
Si     12.043303202924632     14.207399145777307     12.114436516094408
C       6.569074474322527      6.628926421325862     12.971812709539108
Si      7.663920220042947      7.638324671454781     14.304128007535251
C       8.758765965763368      8.818617912766705     12.971812709539108
Si      9.853611711483790      9.828016162895622     14.304128007535251
C      10.948457457204210     11.008309404207546     12.971812709539108
Si     12.043303202924632     12.017707654336464     14.304128007535251
C      13.138148948645053     13.198000895648390     12.971812709539108
Si     14.232994694365475     14.207399145777307     14.304128007535251
128

C       0.000000000000000      0.068477977528196     -0.190309084564729
Si      1.094845745720421      1.065561294857951      1.176230991558366
C       2.189691491440842      2.258169468969037     -0.190309084564729
Si      3.284537237161263      3.255252786298793      1.176230991558366
C       4.379382982881684      4.447860960409880     -0.190309084564729
Si      5.474228728602105      5.444944277739635      1.176230991558366
C       6.569074474322527      6.637552451850723     -0.190309084564729
Si      7.663920220042947      7.634635769180478      1.176230991558366
C       2.189691491440842      0.068477977528196      1.999382406876113
Si      3.284537237161263      1.065561294857951      3.365922482999208
C       4.379382982881684      2.258169468969037      1.999382406876113
Si      5.474228728602105      3.255252786298793      3.365922482999208
C       6.569074474322527      4.447860960409880      1.999382406876113
Si      7.663920220042947      5.444944277739635      3.365922482999208
C       8.758765965763368      6.637552451850723      1.999382406876113
Si      9.853611711483790      7.634635769180478      3.365922482999208
C       4.379382982881684      0.068477977528196      4.189073898316956
Si      5.474228728602105      1.065561294857951      5.555613974440050
C       6.569074474322527      2.258169468969037      4.189073898316956
Si      7.663920220042947      3.255252786298793      5.555613974440050
C       8.758765965763368      4.447860960409880      4.189073898316956
Si      9.853611711483790      5.444944277739635      5.555613974440050
C      10.948457457204210      6.637552451850723      4.189073898316956
Si     12.043303202924632      7.634635769180478      5.555613974440050
C       6.569074474322527      0.068477977528196      6.378765389757798
Si      7.663920220042947      1.065561294857951      7.745305465880892
C       8.758765965763368      2.258169468969037      6.378765389757798
Si      9.853611711483790      3.255252786298793      7.745305465880892
C      10.948457457204210      4.447860960409880      6.378765389757798
Si     12.043303202924632      5.444944277739635      7.745305465880892
C      13.138148948645053      6.637552451850723      6.378765389757798
Si     14.232994694365475      7.634635769180478      7.745305465880892
C       0.000000000000000      2.258169468969037      1.999382406876113
Si      1.094845745720421      3.255252786298793      3.365922482999208
C       2.189691491440842      4.447860960409880      1.999382406876113
Si      3.284537237161263      5.444944277739635      3.365922482999208
C       4.379382982881684      6.637552451850723      1.999382406876113
Si      5.474228728602105      7.634635769180478      3.365922482999208
C       6.569074474322527      8.827243943291563      1.999382406876113
Si      7.663920220042947      9.824327260621320      3.365922482999208
C       2.189691491440842      2.258169468969037      4.189073898316956
Si      3.284537237161263      3.255252786298793      5.555613974440050
C       4.379382982881684      4.447860960409880      4.189073898316956
Si      5.474228728602105      5.444944277739635      5.555613974440050
C       6.569074474322527      6.637552451850723      4.189073898316956
Si      7.663920220042947      7.634635769180478      5.555613974440050
C       8.758765965763368      8.827243943291563      4.189073898316956
Si      9.853611711483790      9.824327260621320      5.555613974440050
C       4.379382982881684      2.258169468969037      6.378765389757798
Si      5.474228728602105      3.255252786298793      7.745305465880892
C       6.569074474322527      4.447860960409880      6.378765389757798
Si      7.663920220042947      5.444944277739635      7.745305465880892
C       8.758765965763368      6.637552451850723      6.378765389757798
Si      9.853611711483790      7.634635769180478      7.745305465880892
C      10.948457457204210      8.827243943291563      6.378765389757798
Si     12.043303202924632      9.824327260621320      7.745305465880892
C       6.569074474322527      2.258169468969037      8.568456881198639
Si      7.663920220042947      3.255252786298793      9.934996957321735
C       8.758765965763368      4.447860960409880      8.568456881198639
Si      9.853611711483790      5.444944277739635      9.934996957321735
C      10.948457457204210      6.637552451850723      8.568456881198639
Si     12.043303202924632      7.634635769180478      9.934996957321735
C      13.138148948645053      8.827243943291563      8.568456881198639
Si     14.232994694365475      9.824327260621320      9.934996957321735
C       0.000000000000000      4.447860960409880      4.189073898316956
Si      1.094845745720421      5.444944277739635      5.555613974440050
C       2.189691491440842      6.637552451850723      4.189073898316956
Si      3.284537237161263      7.634635769180478      5.555613974440050
C       4.379382982881684      8.827243943291563      4.189073898316956
Si      5.474228728602105      9.824327260621320      5.555613974440050
C       6.569074474322527     11.016935434732405      4.189073898316956
Si      7.663920220042947     12.014018752062162      5.555613974440050
C       2.189691491440842      4.447860960409880      6.378765389757798
Si      3.284537237161263      5.444944277739635      7.745305465880892
C       4.379382982881684      6.637552451850723      6.378765389757798
Si      5.474228728602105      7.634635769180478      7.745305465880892
C       6.569074474322527      8.827243943291563      6.378765389757798
Si      7.663920220042947      9.824327260621320      7.745305465880892
C       8.758765965763368     11.016935434732405      6.378765389757798
Si      9.853611711483790     12.014018752062162      7.745305465880892
C       4.379382982881684      4.447860960409880      8.568456881198639
Si      5.474228728602105      5.444944277739635      9.934996957321735
C       6.569074474322527      6.637552451850723      8.568456881198639
Si      7.663920220042947      7.634635769180478      9.934996957321735
C       8.758765965763368      8.827243943291563      8.568456881198639
Si      9.853611711483790      9.824327260621320      9.934996957321735
C      10.948457457204210     11.016935434732405      8.568456881198639
Si     12.043303202924632     12.014018752062162      9.934996957321735
C       6.569074474322527      4.447860960409880     10.758148372639480
Si      7.663920220042947      5.444944277739635     12.124688448762576
C       8.758765965763368      6.637552451850723     10.758148372639480
Si      9.853611711483790      7.634635769180478     12.124688448762576
C      10.948457457204210      8.827243943291563     10.758148372639480
Si     12.043303202924632      9.824327260621320     12.124688448762576
C      13.138148948645053     11.016935434732405     10.758148372639480
Si     14.232994694365475     12.014018752062162     12.124688448762576
C       0.000000000000000      6.637552451850723      6.378765389757798
Si      1.094845745720421      7.634635769180478      7.745305465880892
C       2.189691491440842      8.827243943291563      6.378765389757798
Si      3.284537237161263      9.824327260621320      7.745305465880892
C       4.379382982881684     11.016935434732405      6.378765389757798
Si      5.474228728602105     12.014018752062162      7.745305465880892
C       6.569074474322527     13.206626926173248      6.378765389757798
Si      7.663920220042947     14.203710243503005      7.745305465880892
C       2.189691491440842      6.637552451850723      8.568456881198639
Si      3.284537237161263      7.634635769180478      9.934996957321735
C       4.379382982881684      8.827243943291563      8.568456881198639
Si      5.474228728602105      9.824327260621320      9.934996957321735
C       6.569074474322527     11.016935434732405      8.568456881198639
Si      7.663920220042947     12.014018752062162      9.934996957321735
C       8.758765965763368     13.206626926173248      8.568456881198639
Si      9.853611711483790     14.203710243503005      9.934996957321735
C       4.379382982881684      6.637552451850723     10.758148372639480
Si      5.474228728602105      7.634635769180478     12.124688448762576
C       6.569074474322527      8.827243943291563     10.758148372639480
Si      7.663920220042947      9.824327260621320     12.124688448762576
C       8.758765965763368     11.016935434732405     10.758148372639480
Si      9.853611711483790     12.014018752062162     12.124688448762576
C      10.948457457204210     13.206626926173248     10.758148372639480
Si     12.043303202924632     14.203710243503005     12.124688448762576
C       6.569074474322527      6.637552451850723     12.947839864080324
Si      7.663920220042947      7.634635769180478     14.314379940203420
C       8.758765965763368      8.827243943291563     12.947839864080324
Si      9.853611711483790      9.824327260621320     14.314379940203420
C      10.948457457204210     11.016935434732405     12.947839864080324
Si     12.043303202924632     12.014018752062162     14.314379940203420
C      13.138148948645053     13.206626926173248     12.947839864080324
Si     14.232994694365475     14.203710243503005     14.314379940203420
128

C       0.000000000000000      0.075417852980934     -0.209595888761889
Si      1.094845745720421      1.062593472953402      1.184478949371857
C       2.189691491440842      2.265109344421776     -0.209595888761889
Si      3.284537237161263      3.252284964394245      1.184478949371857
C       4.379382982881684      4.454800835862618     -0.209595888761889
Si      5.474228728602105      5.441976455835086      1.184478949371857
C       6.569074474322527      6.644492327303460     -0.209595888761889
Si      7.663920220042947      7.631667947275929      1.184478949371857
C       2.189691491440842      0.075417852980934      1.980095602678953
Si      3.284537237161263      1.062593472953402      3.374170440812700
C       4.379382982881684      2.265109344421776      1.980095602678953
Si      5.474228728602105      3.252284964394245      3.374170440812700
C       6.569074474322527      4.454800835862618      1.980095602678953
Si      7.663920220042947      5.441976455835086      3.374170440812700
C       8.758765965763368      6.644492327303460      1.980095602678953
Si      9.853611711483790      7.631667947275929      3.374170440812700
C       4.379382982881684      0.075417852980934      4.169787094119796
Si      5.474228728602105      1.062593472953402      5.563861932253541
C       6.569074474322527      2.265109344421776      4.169787094119796
Si      7.663920220042947      3.252284964394245      5.563861932253541
C       8.758765965763368      4.454800835862618      4.169787094119796
Si      9.853611711483790      5.441976455835086      5.563861932253541
C      10.948457457204210      6.644492327303460      4.169787094119796
Si     12.043303202924632      7.631667947275929      5.563861932253541
C       6.569074474322527      0.075417852980934      6.359478585560638
Si      7.663920220042947      1.062593472953402      7.753553423694384
C       8.758765965763368      2.265109344421776      6.359478585560638
Si      9.853611711483790      3.252284964394245      7.753553423694384
C      10.948457457204210      4.454800835862618      6.359478585560638
Si     12.043303202924632      5.441976455835086      7.753553423694384
C      13.138148948645053      6.644492327303460      6.359478585560638
Si     14.232994694365475      7.631667947275929      7.753553423694384
C       0.000000000000000      2.265109344421776      1.980095602678953
Si      1.094845745720421      3.252284964394245      3.374170440812700
C       2.189691491440842      4.454800835862618      1.980095602678953
Si      3.284537237161263      5.441976455835086      3.374170440812700
C       4.379382982881684      6.644492327303460      1.980095602678953
Si      5.474228728602105      7.631667947275929      3.374170440812700
C       6.569074474322527      8.834183818744302      1.980095602678953
Si      7.663920220042947      9.821359438716771      3.374170440812700
C       2.189691491440842      2.265109344421776      4.169787094119796
Si      3.284537237161263      3.252284964394245      5.563861932253541
C       4.379382982881684      4.454800835862618      4.169787094119796
Si      5.474228728602105      5.441976455835086      5.563861932253541
C       6.569074474322527      6.644492327303460      4.169787094119796
Si      7.663920220042947      7.631667947275929      5.563861932253541
C       8.758765965763368      8.834183818744302      4.169787094119796
Si      9.853611711483790      9.821359438716771      5.563861932253541
C       4.379382982881684      2.265109344421776      6.359478585560638
Si      5.474228728602105      3.252284964394245      7.753553423694384
C       6.569074474322527      4.454800835862618      6.359478585560638
Si      7.663920220042947      5.441976455835086      7.753553423694384
C       8.758765965763368      6.644492327303460      6.359478585560638
Si      9.853611711483790      7.631667947275929      7.753553423694384
C      10.948457457204210      8.834183818744302      6.359478585560638
Si     12.043303202924632      9.821359438716771      7.753553423694384
C       6.569074474322527      2.265109344421776      8.549170077001479
Si      7.663920220042947      3.252284964394245      9.943244915135226
C       8.758765965763368      4.454800835862618      8.549170077001479
Si      9.853611711483790      5.441976455835086      9.943244915135226
C      10.948457457204210      6.644492327303460      8.549170077001479
Si     12.043303202924632      7.631667947275929      9.943244915135226
C      13.138148948645053      8.834183818744302      8.549170077001479
Si     14.232994694365475      9.821359438716771      9.943244915135226
C       0.000000000000000      4.454800835862618      4.169787094119796
Si      1.094845745720421      5.441976455835086      5.563861932253541
C       2.189691491440842      6.644492327303460      4.169787094119796
Si      3.284537237161263      7.631667947275929      5.563861932253541
C       4.379382982881684      8.834183818744302      4.169787094119796
Si      5.474228728602105      9.821359438716771      5.563861932253541
C       6.569074474322527     11.023875310185144      4.169787094119796
Si      7.663920220042947     12.011050930157612      5.563861932253541
C       2.189691491440842      4.454800835862618      6.359478585560638
Si      3.284537237161263      5.441976455835086      7.753553423694384
C       4.379382982881684      6.644492327303460      6.359478585560638
Si      5.474228728602105      7.631667947275929      7.753553423694384
C       6.569074474322527      8.834183818744302      6.359478585560638
Si      7.663920220042947      9.821359438716771      7.753553423694384
C       8.758765965763368     11.023875310185144      6.359478585560638
Si      9.853611711483790     12.011050930157612      7.753553423694384
C       4.379382982881684      4.454800835862618      8.549170077001479
Si      5.474228728602105      5.441976455835086      9.943244915135226
C       6.569074474322527      6.644492327303460      8.549170077001479
Si      7.663920220042947      7.631667947275929      9.943244915135226
C       8.758765965763368      8.834183818744302      8.549170077001479
Si      9.853611711483790      9.821359438716771      9.943244915135226
C      10.948457457204210     11.023875310185144      8.549170077001479
Si     12.043303202924632     12.011050930157612      9.943244915135226
C       6.569074474322527      4.454800835862618     10.738861568442321
Si      7.663920220042947      5.441976455835086     12.132936406576068
C       8.758765965763368      6.644492327303460     10.738861568442321
Si      9.853611711483790      7.631667947275929     12.132936406576068
C      10.948457457204210      8.834183818744302     10.738861568442321
Si     12.043303202924632      9.821359438716771     12.132936406576068
C      13.138148948645053     11.023875310185144     10.738861568442321
Si     14.232994694365475     12.011050930157612     12.132936406576068
C       0.000000000000000      6.644492327303460      6.359478585560638
Si      1.094845745720421      7.631667947275929      7.753553423694384
C       2.189691491440842      8.834183818744302      6.359478585560638
Si      3.284537237161263      9.821359438716771      7.753553423694384
C       4.379382982881684     11.023875310185144      6.359478585560638
Si      5.474228728602105     12.011050930157612      7.753553423694384
C       6.569074474322527     13.213566801625987      6.359478585560638
Si      7.663920220042947     14.200742421598456      7.753553423694384
C       2.189691491440842      6.644492327303460      8.549170077001479
Si      3.284537237161263      7.631667947275929      9.943244915135226
C       4.379382982881684      8.834183818744302      8.549170077001479
Si      5.474228728602105      9.821359438716771      9.943244915135226
C       6.569074474322527     11.023875310185144      8.549170077001479
Si      7.663920220042947     12.011050930157612      9.943244915135226
C       8.758765965763368     13.213566801625987      8.549170077001479
Si      9.853611711483790     14.200742421598456      9.943244915135226
C       4.379382982881684      6.644492327303460     10.738861568442321
Si      5.474228728602105      7.631667947275929     12.132936406576068
C       6.569074474322527      8.834183818744302     10.738861568442321
Si      7.663920220042947      9.821359438716771     12.132936406576068
C       8.758765965763368     11.023875310185144     10.738861568442321
Si      9.853611711483790     12.011050930157612     12.132936406576068
C      10.948457457204210     13.213566801625987     10.738861568442321
Si     12.043303202924632     14.200742421598456     12.132936406576068
C       6.569074474322527      6.644492327303460     12.928553059883164
Si      7.663920220042947      7.631667947275929     14.322627898016911
C       8.758765965763368      8.834183818744302     12.928553059883164
Si      9.853611711483790      9.821359438716771     14.322627898016911
C      10.948457457204210     11.023875310185144     12.928553059883164
Si     12.043303202924632     12.011050930157612     14.322627898016911
C      13.138148948645053     13.213566801625987     12.928553059883164
Si     14.232994694365475     14.200742421598456     14.322627898016911
128

C       0.000000000000000      0.080500690595778     -0.223721746568857
Si      1.094845745720421      1.060419809043534      1.190519840235903
C       2.189691491440842      2.270192182036620     -0.223721746568857
Si      3.284537237161263      3.250111300484376      1.190519840235903
C       4.379382982881684      4.459883673477462     -0.223721746568857
Si      5.474228728602105      5.439802791925218      1.190519840235903
C       6.569074474322527      6.649575164918304     -0.223721746568857
Si      7.663920220042947      7.629494283366061      1.190519840235903
C       2.189691491440842      0.080500690595778      1.965969744871985
Si      3.284537237161263      1.060419809043534      3.380211331676746
C       4.379382982881684      2.270192182036620      1.965969744871985
Si      5.474228728602105      3.250111300484376      3.380211331676746
C       6.569074474322527      4.459883673477462      1.965969744871985
Si      7.663920220042947      5.439802791925218      3.380211331676746
C       8.758765965763368      6.649575164918304      1.965969744871985
Si      9.853611711483790      7.629494283366061      3.380211331676746
C       4.379382982881684      0.080500690595778      4.155661236312827
Si      5.474228728602105      1.060419809043534      5.569902823117587
C       6.569074474322527      2.270192182036620      4.155661236312827
Si      7.663920220042947      3.250111300484376      5.569902823117587
C       8.758765965763368      4.459883673477462      4.155661236312827
Si      9.853611711483790      5.439802791925218      5.569902823117587
C      10.948457457204210      6.649575164918304      4.155661236312827
Si     12.043303202924632      7.629494283366061      5.569902823117587
C       6.569074474322527      0.080500690595778      6.345352727753669
Si      7.663920220042947      1.060419809043534      7.759594314558430
C       8.758765965763368      2.270192182036620      6.345352727753669
Si      9.853611711483790      3.250111300484376      7.759594314558430
C      10.948457457204210      4.459883673477462      6.345352727753669
Si     12.043303202924632      5.439802791925218      7.759594314558430
C      13.138148948645053      6.649575164918304      6.345352727753669
Si     14.232994694365475      7.629494283366061      7.759594314558430
C       0.000000000000000      2.270192182036620      1.965969744871985
Si      1.094845745720421      3.250111300484376      3.380211331676746
C       2.189691491440842      4.459883673477462      1.965969744871985
Si      3.284537237161263      5.439802791925218      3.380211331676746
C       4.379382982881684      6.649575164918304      1.965969744871985
Si      5.474228728602105      7.629494283366061      3.380211331676746
C       6.569074474322527      8.839266656359145      1.965969744871985
Si      7.663920220042947      9.819185774806902      3.380211331676746
C       2.189691491440842      2.270192182036620      4.155661236312827
Si      3.284537237161263      3.250111300484376      5.569902823117587
C       4.379382982881684      4.459883673477462      4.155661236312827
Si      5.474228728602105      5.439802791925218      5.569902823117587
C       6.569074474322527      6.649575164918304      4.155661236312827
Si      7.663920220042947      7.629494283366061      5.569902823117587
C       8.758765965763368      8.839266656359145      4.155661236312827
Si      9.853611711483790      9.819185774806902      5.569902823117587
C       4.379382982881684      2.270192182036620      6.345352727753669
Si      5.474228728602105      3.250111300484376      7.759594314558430
C       6.569074474322527      4.459883673477462      6.345352727753669
Si      7.663920220042947      5.439802791925218      7.759594314558430
C       8.758765965763368      6.649575164918304      6.345352727753669
Si      9.853611711483790      7.629494283366061      7.759594314558430
C      10.948457457204210      8.839266656359145      6.345352727753669
Si     12.043303202924632      9.819185774806902      7.759594314558430
C       6.569074474322527      2.270192182036620      8.535044219194511
Si      7.663920220042947      3.250111300484376      9.949285805999272
C       8.758765965763368      4.459883673477462      8.535044219194511
Si      9.853611711483790      5.439802791925218      9.949285805999272
C      10.948457457204210      6.649575164918304      8.535044219194511
Si     12.043303202924632      7.629494283366061      9.949285805999272
C      13.138148948645053      8.839266656359145      8.535044219194511
Si     14.232994694365475      9.819185774806902      9.949285805999272
C       0.000000000000000      4.459883673477462      4.155661236312827
Si      1.094845745720421      5.439802791925218      5.569902823117587
C       2.189691491440842      6.649575164918304      4.155661236312827
Si      3.284537237161263      7.629494283366061      5.569902823117587
C       4.379382982881684      8.839266656359145      4.155661236312827
Si      5.474228728602105      9.819185774806902      5.569902823117587
C       6.569074474322527     11.028958147799987      4.155661236312827
Si      7.663920220042947     12.008877266247744      5.569902823117587
C       2.189691491440842      4.459883673477462      6.345352727753669
Si      3.284537237161263      5.439802791925218      7.759594314558430
C       4.379382982881684      6.649575164918304      6.345352727753669
Si      5.474228728602105      7.629494283366061      7.759594314558430
C       6.569074474322527      8.839266656359145      6.345352727753669
Si      7.663920220042947      9.819185774806902      7.759594314558430
C       8.758765965763368     11.028958147799987      6.345352727753669
Si      9.853611711483790     12.008877266247744      7.759594314558430
C       4.379382982881684      4.459883673477462      8.535044219194511
Si      5.474228728602105      5.439802791925218      9.949285805999272
C       6.569074474322527      6.649575164918304      8.535044219194511
Si      7.663920220042947      7.629494283366061      9.949285805999272
C       8.758765965763368      8.839266656359145      8.535044219194511
Si      9.853611711483790      9.819185774806902      9.949285805999272
C      10.948457457204210     11.028958147799987      8.535044219194511
Si     12.043303202924632     12.008877266247744      9.949285805999272
C       6.569074474322527      4.459883673477462     10.724735710635352
Si      7.663920220042947      5.439802791925218     12.138977297440114
C       8.758765965763368      6.649575164918304     10.724735710635352
Si      9.853611711483790      7.629494283366061     12.138977297440114
C      10.948457457204210      8.839266656359145     10.724735710635352
Si     12.043303202924632      9.819185774806902     12.138977297440114
C      13.138148948645053     11.028958147799987     10.724735710635352
Si     14.232994694365475     12.008877266247744     12.138977297440114
C       0.000000000000000      6.649575164918304      6.345352727753669
Si      1.094845745720421      7.629494283366061      7.759594314558430
C       2.189691491440842      8.839266656359145      6.345352727753669
Si      3.284537237161263      9.819185774806902      7.759594314558430
C       4.379382982881684     11.028958147799987      6.345352727753669
Si      5.474228728602105     12.008877266247744      7.759594314558430
C       6.569074474322527     13.218649639240830      6.345352727753669
Si      7.663920220042947     14.198568757688587      7.759594314558430
C       2.189691491440842      6.649575164918304      8.535044219194511
Si      3.284537237161263      7.629494283366061      9.949285805999272
C       4.379382982881684      8.839266656359145      8.535044219194511
Si      5.474228728602105      9.819185774806902      9.949285805999272
C       6.569074474322527     11.028958147799987      8.535044219194511
Si      7.663920220042947     12.008877266247744      9.949285805999272
C       8.758765965763368     13.218649639240830      8.535044219194511
Si      9.853611711483790     14.198568757688587      9.949285805999272
C       4.379382982881684      6.649575164918304     10.724735710635352
Si      5.474228728602105      7.629494283366061     12.138977297440114
C       6.569074474322527      8.839266656359145     10.724735710635352
Si      7.663920220042947      9.819185774806902     12.138977297440114
C       8.758765965763368     11.028958147799987     10.724735710635352
Si      9.853611711483790     12.008877266247744     12.138977297440114
C      10.948457457204210     13.218649639240830     10.724735710635352
Si     12.043303202924632     14.198568757688587     12.138977297440114
C       6.569074474322527      6.649575164918304     12.914427202076196
Si      7.663920220042947      7.629494283366061     14.328668788880957
C       8.758765965763368      8.839266656359145     12.914427202076196
Si      9.853611711483790      9.819185774806902     14.328668788880957
C      10.948457457204210     11.028958147799987     12.914427202076196
Si     12.043303202924632     12.008877266247744     14.328668788880957
C      13.138148948645053     13.218649639240830     12.914427202076196
Si     14.232994694365475     14.198568757688587     14.328668788880957
128

C       0.000000000000000      0.083601334041678     -0.232338832485392
Si      1.094845745720421      1.059093825947784      1.194204917368863
C       2.189691491440842      2.273292825482521     -0.232338832485392
Si      3.284537237161263      3.248785317388627      1.194204917368863
C       4.379382982881684      4.462984316923363     -0.232338832485392
Si      5.474228728602105      5.438476808829468      1.194204917368863
C       6.569074474322527      6.652675808364205     -0.232338832485392
Si      7.663920220042947      7.628168300270310      1.194204917368863
C       2.189691491440842      0.083601334041678      1.957352658955450
Si      3.284537237161263      1.059093825947784      3.383896408809705
C       4.379382982881684      2.273292825482521      1.957352658955450
Si      5.474228728602105      3.248785317388627      3.383896408809705
C       6.569074474322527      4.462984316923363      1.957352658955450
Si      7.663920220042947      5.438476808829468      3.383896408809705
C       8.758765965763368      6.652675808364205      1.957352658955450
Si      9.853611711483790      7.628168300270310      3.383896408809705
C       4.379382982881684      0.083601334041678      4.147044150396292
Si      5.474228728602105      1.059093825947784      5.573587900250547
C       6.569074474322527      2.273292825482521      4.147044150396292
Si      7.663920220042947      3.248785317388627      5.573587900250547
C       8.758765965763368      4.462984316923363      4.147044150396292
Si      9.853611711483790      5.438476808829468      5.573587900250547
C      10.948457457204210      6.652675808364205      4.147044150396292
Si     12.043303202924632      7.628168300270310      5.573587900250547
C       6.569074474322527      0.083601334041678      6.336735641837135
Si      7.663920220042947      1.059093825947784      7.763279391691389
C       8.758765965763368      2.273292825482521      6.336735641837135
Si      9.853611711483790      3.248785317388627      7.763279391691389
C      10.948457457204210      4.462984316923363      6.336735641837135
Si     12.043303202924632      5.438476808829468      7.763279391691389
C      13.138148948645053      6.652675808364205      6.336735641837135
Si     14.232994694365475      7.628168300270310      7.763279391691389
C       0.000000000000000      2.273292825482521      1.957352658955450
Si      1.094845745720421      3.248785317388627      3.383896408809705
C       2.189691491440842      4.462984316923363      1.957352658955450
Si      3.284537237161263      5.438476808829468      3.383896408809705
C       4.379382982881684      6.652675808364205      1.957352658955450
Si      5.474228728602105      7.628168300270310      3.383896408809705
C       6.569074474322527      8.842367299805046      1.957352658955450
Si      7.663920220042947      9.817859791711154      3.383896408809705
C       2.189691491440842      2.273292825482521      4.147044150396292
Si      3.284537237161263      3.248785317388627      5.573587900250547
C       4.379382982881684      4.462984316923363      4.147044150396292
Si      5.474228728602105      5.438476808829468      5.573587900250547
C       6.569074474322527      6.652675808364205      4.147044150396292
Si      7.663920220042947      7.628168300270310      5.573587900250547
C       8.758765965763368      8.842367299805046      4.147044150396292
Si      9.853611711483790      9.817859791711154      5.573587900250547
C       4.379382982881684      2.273292825482521      6.336735641837135
Si      5.474228728602105      3.248785317388627      7.763279391691389
C       6.569074474322527      4.462984316923363      6.336735641837135
Si      7.663920220042947      5.438476808829468      7.763279391691389
C       8.758765965763368      6.652675808364205      6.336735641837135
Si      9.853611711483790      7.628168300270310      7.763279391691389
C      10.948457457204210      8.842367299805046      6.336735641837135
Si     12.043303202924632      9.817859791711154      7.763279391691389
C       6.569074474322527      2.273292825482521      8.526427133277975
Si      7.663920220042947      3.248785317388627      9.952970883132231
C       8.758765965763368      4.462984316923363      8.526427133277975
Si      9.853611711483790      5.438476808829468      9.952970883132231
C      10.948457457204210      6.652675808364205      8.526427133277975
Si     12.043303202924632      7.628168300270310      9.952970883132231
C      13.138148948645053      8.842367299805046      8.526427133277975
Si     14.232994694365475      9.817859791711154      9.952970883132231
C       0.000000000000000      4.462984316923363      4.147044150396292
Si      1.094845745720421      5.438476808829468      5.573587900250547
C       2.189691491440842      6.652675808364205      4.147044150396292
Si      3.284537237161263      7.628168300270310      5.573587900250547
C       4.379382982881684      8.842367299805046      4.147044150396292
Si      5.474228728602105      9.817859791711154      5.573587900250547
C       6.569074474322527     11.032058791245888      4.147044150396292
Si      7.663920220042947     12.007551283151995      5.573587900250547
C       2.189691491440842      4.462984316923363      6.336735641837135
Si      3.284537237161263      5.438476808829468      7.763279391691389
C       4.379382982881684      6.652675808364205      6.336735641837135
Si      5.474228728602105      7.628168300270310      7.763279391691389
C       6.569074474322527      8.842367299805046      6.336735641837135
Si      7.663920220042947      9.817859791711154      7.763279391691389
C       8.758765965763368     11.032058791245888      6.336735641837135
Si      9.853611711483790     12.007551283151995      7.763279391691389
C       4.379382982881684      4.462984316923363      8.526427133277975
Si      5.474228728602105      5.438476808829468      9.952970883132231
C       6.569074474322527      6.652675808364205      8.526427133277975
Si      7.663920220042947      7.628168300270310      9.952970883132231
C       8.758765965763368      8.842367299805046      8.526427133277975
Si      9.853611711483790      9.817859791711154      9.952970883132231
C      10.948457457204210     11.032058791245888      8.526427133277975
Si     12.043303202924632     12.007551283151995      9.952970883132231
C       6.569074474322527      4.462984316923363     10.716118624718817
Si      7.663920220042947      5.438476808829468     12.142662374573073
C       8.758765965763368      6.652675808364205     10.716118624718817
Si      9.853611711483790      7.628168300270310     12.142662374573073
C      10.948457457204210      8.842367299805046     10.716118624718817
Si     12.043303202924632      9.817859791711154     12.142662374573073
C      13.138148948645053     11.032058791245888     10.716118624718817
Si     14.232994694365475     12.007551283151995     12.142662374573073
C       0.000000000000000      6.652675808364205      6.336735641837135
Si      1.094845745720421      7.628168300270310      7.763279391691389
C       2.189691491440842      8.842367299805046      6.336735641837135
Si      3.284537237161263      9.817859791711154      7.763279391691389
C       4.379382982881684     11.032058791245888      6.336735641837135
Si      5.474228728602105     12.007551283151995      7.763279391691389
C       6.569074474322527     13.221750282686731      6.336735641837135
Si      7.663920220042947     14.197242774592839      7.763279391691389
C       2.189691491440842      6.652675808364205      8.526427133277975
Si      3.284537237161263      7.628168300270310      9.952970883132231
C       4.379382982881684      8.842367299805046      8.526427133277975
Si      5.474228728602105      9.817859791711154      9.952970883132231
C       6.569074474322527     11.032058791245888      8.526427133277975
Si      7.663920220042947     12.007551283151995      9.952970883132231
C       8.758765965763368     13.221750282686731      8.526427133277975
Si      9.853611711483790     14.197242774592839      9.952970883132231
C       4.379382982881684      6.652675808364205     10.716118624718817
Si      5.474228728602105      7.628168300270310     12.142662374573073
C       6.569074474322527      8.842367299805046     10.716118624718817
Si      7.663920220042947      9.817859791711154     12.142662374573073
C       8.758765965763368     11.032058791245888     10.716118624718817
Si      9.853611711483790     12.007551283151995     12.142662374573073
C      10.948457457204210     13.221750282686731     10.716118624718817
Si     12.043303202924632     14.197242774592839     12.142662374573073
C       6.569074474322527      6.652675808364205     12.905810116159660
Si      7.663920220042947      7.628168300270310     14.332353866013916
C       8.758765965763368      8.842367299805046     12.905810116159660
Si      9.853611711483790      9.817859791711154     14.332353866013916
C      10.948457457204210     11.032058791245888     12.905810116159660
Si     12.043303202924632     12.007551283151995     14.332353866013916
C      13.138148948645053     13.221750282686731     12.905810116159660
Si     14.232994694365475     14.197242774592839     14.332353866013916
128

C       0.000000000000000      0.084643435186553     -0.235234965257761
Si      1.094845745720421      1.058648173770656      1.195443441941652
C       2.189691491440842      2.274334926627395     -0.235234965257761
Si      3.284537237161263      3.248339665211498      1.195443441941652
C       4.379382982881684      4.464026418068237     -0.235234965257761
Si      5.474228728602105      5.438031156652340      1.195443441941652
C       6.569074474322527      6.653717909509079     -0.235234965257761
Si      7.663920220042947      7.627722648093182      1.195443441941652
C       2.189691491440842      0.084643435186553      1.954456526183082
Si      3.284537237161263      1.058648173770656      3.385134933382495
C       4.379382982881684      2.274334926627395      1.954456526183082
Si      5.474228728602105      3.248339665211498      3.385134933382495
C       6.569074474322527      4.464026418068237      1.954456526183082
Si      7.663920220042947      5.438031156652340      3.385134933382495
C       8.758765965763368      6.653717909509079      1.954456526183082
Si      9.853611711483790      7.627722648093182      3.385134933382495
C       4.379382982881684      0.084643435186553      4.144148017623923
Si      5.474228728602105      1.058648173770656      5.574826424823336
C       6.569074474322527      2.274334926627395      4.144148017623923
Si      7.663920220042947      3.248339665211498      5.574826424823336
C       8.758765965763368      4.464026418068237      4.144148017623923
Si      9.853611711483790      5.438031156652340      5.574826424823336
C      10.948457457204210      6.653717909509079      4.144148017623923
Si     12.043303202924632      7.627722648093182      5.574826424823336
C       6.569074474322527      0.084643435186553      6.333839509064766
Si      7.663920220042947      1.058648173770656      7.764517916264179
C       8.758765965763368      2.274334926627395      6.333839509064766
Si      9.853611711483790      3.248339665211498      7.764517916264179
C      10.948457457204210      4.464026418068237      6.333839509064766
Si     12.043303202924632      5.438031156652340      7.764517916264179
C      13.138148948645053      6.653717909509079      6.333839509064766
Si     14.232994694365475      7.627722648093182      7.764517916264179
C       0.000000000000000      2.274334926627395      1.954456526183082
Si      1.094845745720421      3.248339665211498      3.385134933382495
C       2.189691491440842      4.464026418068237      1.954456526183082
Si      3.284537237161263      5.438031156652340      3.385134933382495
C       4.379382982881684      6.653717909509079      1.954456526183082
Si      5.474228728602105      7.627722648093182      3.385134933382495
C       6.569074474322527      8.843409400949922      1.954456526183082
Si      7.663920220042947      9.817414139534025      3.385134933382495
C       2.189691491440842      2.274334926627395      4.144148017623923
Si      3.284537237161263      3.248339665211498      5.574826424823336
C       4.379382982881684      4.464026418068237      4.144148017623923
Si      5.474228728602105      5.438031156652340      5.574826424823336
C       6.569074474322527      6.653717909509079      4.144148017623923
Si      7.663920220042947      7.627722648093182      5.574826424823336
C       8.758765965763368      8.843409400949922      4.144148017623923
Si      9.853611711483790      9.817414139534025      5.574826424823336
C       4.379382982881684      2.274334926627395      6.333839509064766
Si      5.474228728602105      3.248339665211498      7.764517916264179
C       6.569074474322527      4.464026418068237      6.333839509064766
Si      7.663920220042947      5.438031156652340      7.764517916264179
C       8.758765965763368      6.653717909509079      6.333839509064766
Si      9.853611711483790      7.627722648093182      7.764517916264179
C      10.948457457204210      8.843409400949922      6.333839509064766
Si     12.043303202924632      9.817414139534025      7.764517916264179
C       6.569074474322527      2.274334926627395      8.523531000505608
Si      7.663920220042947      3.248339665211498      9.954209407705020
C       8.758765965763368      4.464026418068237      8.523531000505608
Si      9.853611711483790      5.438031156652340      9.954209407705020
C      10.948457457204210      6.653717909509079      8.523531000505608
Si     12.043303202924632      7.627722648093182      9.954209407705020
C      13.138148948645053      8.843409400949922      8.523531000505608
Si     14.232994694365475      9.817414139534025      9.954209407705020
C       0.000000000000000      4.464026418068237      4.144148017623923
Si      1.094845745720421      5.438031156652340      5.574826424823336
C       2.189691491440842      6.653717909509079      4.144148017623923
Si      3.284537237161263      7.627722648093182      5.574826424823336
C       4.379382982881684      8.843409400949922      4.144148017623923
Si      5.474228728602105      9.817414139534025      5.574826424823336
C       6.569074474322527     11.033100892390763      4.144148017623923
Si      7.663920220042947     12.007105630974866      5.574826424823336
C       2.189691491440842      4.464026418068237      6.333839509064766
Si      3.284537237161263      5.438031156652340      7.764517916264179
C       4.379382982881684      6.653717909509079      6.333839509064766
Si      5.474228728602105      7.627722648093182      7.764517916264179
C       6.569074474322527      8.843409400949922      6.333839509064766
Si      7.663920220042947      9.817414139534025      7.764517916264179
C       8.758765965763368     11.033100892390763      6.333839509064766
Si      9.853611711483790     12.007105630974866      7.764517916264179
C       4.379382982881684      4.464026418068237      8.523531000505608
Si      5.474228728602105      5.438031156652340      9.954209407705020
C       6.569074474322527      6.653717909509079      8.523531000505608
Si      7.663920220042947      7.627722648093182      9.954209407705020
C       8.758765965763368      8.843409400949922      8.523531000505608
Si      9.853611711483790      9.817414139534025      9.954209407705020
C      10.948457457204210     11.033100892390763      8.523531000505608
Si     12.043303202924632     12.007105630974866      9.954209407705020
C       6.569074474322527      4.464026418068237     10.713222491946450
Si      7.663920220042947      5.438031156652340     12.143900899145862
C       8.758765965763368      6.653717909509079     10.713222491946450
Si      9.853611711483790      7.627722648093182     12.143900899145862
C      10.948457457204210      8.843409400949922     10.713222491946450
Si     12.043303202924632      9.817414139534025     12.143900899145862
C      13.138148948645053     11.033100892390763     10.713222491946450
Si     14.232994694365475     12.007105630974866     12.143900899145862
C       0.000000000000000      6.653717909509079      6.333839509064766
Si      1.094845745720421      7.627722648093182      7.764517916264179
C       2.189691491440842      8.843409400949922      6.333839509064766
Si      3.284537237161263      9.817414139534025      7.764517916264179
C       4.379382982881684     11.033100892390763      6.333839509064766
Si      5.474228728602105     12.007105630974866      7.764517916264179
C       6.569074474322527     13.222792383831607      6.333839509064766
Si      7.663920220042947     14.196797122415710      7.764517916264179
C       2.189691491440842      6.653717909509079      8.523531000505608
Si      3.284537237161263      7.627722648093182      9.954209407705020
C       4.379382982881684      8.843409400949922      8.523531000505608
Si      5.474228728602105      9.817414139534025      9.954209407705020
C       6.569074474322527     11.033100892390763      8.523531000505608
Si      7.663920220042947     12.007105630974866      9.954209407705020
C       8.758765965763368     13.222792383831607      8.523531000505608
Si      9.853611711483790     14.196797122415710      9.954209407705020
C       4.379382982881684      6.653717909509079     10.713222491946450
Si      5.474228728602105      7.627722648093182     12.143900899145862
C       6.569074474322527      8.843409400949922     10.713222491946450
Si      7.663920220042947      9.817414139534025     12.143900899145862
C       8.758765965763368     11.033100892390763     10.713222491946450
Si      9.853611711483790     12.007105630974866     12.143900899145862
C      10.948457457204210     13.222792383831607     10.713222491946450
Si     12.043303202924632     14.196797122415710     12.143900899145862
C       6.569074474322527      6.653717909509079     12.902913983387293
Si      7.663920220042947      7.627722648093182     14.333592390586706
C       8.758765965763368      8.843409400949922     12.902913983387293
Si      9.853611711483790      9.817414139534025     14.333592390586706
C      10.948457457204210     11.033100892390763     12.902913983387293
Si     12.043303202924632     12.007105630974866     14.333592390586706
C      13.138148948645053     13.222792383831607     12.902913983387293
Si     14.232994694365475     14.196797122415710     14.333592390586706
128

C       0.000000000000000      0.083601334041678     -0.232338832485392
Si      1.094845745720421      1.059093825947784      1.194204917368863
C       2.189691491440842      2.273292825482521     -0.232338832485392
Si      3.284537237161263      3.248785317388627      1.194204917368863
C       4.379382982881684      4.462984316923363     -0.232338832485392
Si      5.474228728602105      5.438476808829468      1.194204917368863
C       6.569074474322527      6.652675808364205     -0.232338832485392
Si      7.663920220042947      7.628168300270310      1.194204917368863
C       2.189691491440842      0.083601334041678      1.957352658955450
Si      3.284537237161263      1.059093825947784      3.383896408809705
C       4.379382982881684      2.273292825482521      1.957352658955450
Si      5.474228728602105      3.248785317388627      3.383896408809705
C       6.569074474322527      4.462984316923363      1.957352658955450
Si      7.663920220042947      5.438476808829468      3.383896408809705
C       8.758765965763368      6.652675808364205      1.957352658955450
Si      9.853611711483790      7.628168300270310      3.383896408809705
C       4.379382982881684      0.083601334041678      4.147044150396292
Si      5.474228728602105      1.059093825947784      5.573587900250547
C       6.569074474322527      2.273292825482521      4.147044150396292
Si      7.663920220042947      3.248785317388627      5.573587900250547
C       8.758765965763368      4.462984316923363      4.147044150396292
Si      9.853611711483790      5.438476808829468      5.573587900250547
C      10.948457457204210      6.652675808364205      4.147044150396292
Si     12.043303202924632      7.628168300270310      5.573587900250547
C       6.569074474322527      0.083601334041678      6.336735641837135
Si      7.663920220042947      1.059093825947784      7.763279391691389
C       8.758765965763368      2.273292825482521      6.336735641837135
Si      9.853611711483790      3.248785317388627      7.763279391691389
C      10.948457457204210      4.462984316923363      6.336735641837135
Si     12.043303202924632      5.438476808829468      7.763279391691389
C      13.138148948645053      6.652675808364205      6.336735641837135
Si     14.232994694365475      7.628168300270310      7.763279391691389
C       0.000000000000000      2.273292825482521      1.957352658955450
Si      1.094845745720421      3.248785317388627      3.383896408809705
C       2.189691491440842      4.462984316923363      1.957352658955450
Si      3.284537237161263      5.438476808829468      3.383896408809705
C       4.379382982881684      6.652675808364205      1.957352658955450
Si      5.474228728602105      7.628168300270310      3.383896408809705
C       6.569074474322527      8.842367299805046      1.957352658955450
Si      7.663920220042947      9.817859791711154      3.383896408809705
C       2.189691491440842      2.273292825482521      4.147044150396292
Si      3.284537237161263      3.248785317388627      5.573587900250547
C       4.379382982881684      4.462984316923363      4.147044150396292
Si      5.474228728602105      5.438476808829468      5.573587900250547
C       6.569074474322527      6.652675808364205      4.147044150396292
Si      7.663920220042947      7.628168300270310      5.573587900250547
C       8.758765965763368      8.842367299805046      4.147044150396292
Si      9.853611711483790      9.817859791711154      5.573587900250547
C       4.379382982881684      2.273292825482521      6.336735641837135
Si      5.474228728602105      3.248785317388627      7.763279391691389
C       6.569074474322527      4.462984316923363      6.336735641837135
Si      7.663920220042947      5.438476808829468      7.763279391691389
C       8.758765965763368      6.652675808364205      6.336735641837135
Si      9.853611711483790      7.628168300270310      7.763279391691389
C      10.948457457204210      8.842367299805046      6.336735641837135
Si     12.043303202924632      9.817859791711154      7.763279391691389
C       6.569074474322527      2.273292825482521      8.526427133277975
Si      7.663920220042947      3.248785317388627      9.952970883132231
C       8.758765965763368      4.462984316923363      8.526427133277975
Si      9.853611711483790      5.438476808829468      9.952970883132231
C      10.948457457204210      6.652675808364205      8.526427133277975
Si     12.043303202924632      7.628168300270310      9.952970883132231
C      13.138148948645053      8.842367299805046      8.526427133277975
Si     14.232994694365475      9.817859791711154      9.952970883132231
C       0.000000000000000      4.462984316923363      4.147044150396292
Si      1.094845745720421      5.438476808829468      5.573587900250547
C       2.189691491440842      6.652675808364205      4.147044150396292
Si      3.284537237161263      7.628168300270310      5.573587900250547
C       4.379382982881684      8.842367299805046      4.147044150396292
Si      5.474228728602105      9.817859791711154      5.573587900250547
C       6.569074474322527     11.032058791245888      4.147044150396292
Si      7.663920220042947     12.007551283151995      5.573587900250547
C       2.189691491440842      4.462984316923363      6.336735641837135
Si      3.284537237161263      5.438476808829468      7.763279391691389
C       4.379382982881684      6.652675808364205      6.336735641837135
Si      5.474228728602105      7.628168300270310      7.763279391691389
C       6.569074474322527      8.842367299805046      6.336735641837135
Si      7.663920220042947      9.817859791711154      7.763279391691389
C       8.758765965763368     11.032058791245888      6.336735641837135
Si      9.853611711483790     12.007551283151995      7.763279391691389
C       4.379382982881684      4.462984316923363      8.526427133277975
Si      5.474228728602105      5.438476808829468      9.952970883132231
C       6.569074474322527      6.652675808364205      8.526427133277975
Si      7.663920220042947      7.628168300270310      9.952970883132231
C       8.758765965763368      8.842367299805046      8.526427133277975
Si      9.853611711483790      9.817859791711154      9.952970883132231
C      10.948457457204210     11.032058791245888      8.526427133277975
Si     12.043303202924632     12.007551283151995      9.952970883132231
C       6.569074474322527      4.462984316923363     10.716118624718817
Si      7.663920220042947      5.438476808829468     12.142662374573073
C       8.758765965763368      6.652675808364205     10.716118624718817
Si      9.853611711483790      7.628168300270310     12.142662374573073
C      10.948457457204210      8.842367299805046     10.716118624718817
Si     12.043303202924632      9.817859791711154     12.142662374573073
C      13.138148948645053     11.032058791245888     10.716118624718817
Si     14.232994694365475     12.007551283151995     12.142662374573073
C       0.000000000000000      6.652675808364205      6.336735641837135
Si      1.094845745720421      7.628168300270310      7.763279391691389
C       2.189691491440842      8.842367299805046      6.336735641837135
Si      3.284537237161263      9.817859791711154      7.763279391691389
C       4.379382982881684     11.032058791245888      6.336735641837135
Si      5.474228728602105     12.007551283151995      7.763279391691389
C       6.569074474322527     13.221750282686731      6.336735641837135
Si      7.663920220042947     14.197242774592839      7.763279391691389
C       2.189691491440842      6.652675808364205      8.526427133277975
Si      3.284537237161263      7.628168300270310      9.952970883132231
C       4.379382982881684      8.842367299805046      8.526427133277975
Si      5.474228728602105      9.817859791711154      9.952970883132231
C       6.569074474322527     11.032058791245888      8.526427133277975
Si      7.663920220042947     12.007551283151995      9.952970883132231
C       8.758765965763368     13.221750282686731      8.526427133277975
Si      9.853611711483790     14.197242774592839      9.952970883132231
C       4.379382982881684      6.652675808364205     10.716118624718817
Si      5.474228728602105      7.628168300270310     12.142662374573073
C       6.569074474322527      8.842367299805046     10.716118624718817
Si      7.663920220042947      9.817859791711154     12.142662374573073
C       8.758765965763368     11.032058791245888     10.716118624718817
Si      9.853611711483790     12.007551283151995     12.142662374573073
C      10.948457457204210     13.221750282686731     10.716118624718817
Si     12.043303202924632     14.197242774592839     12.142662374573073
C       6.569074474322527      6.652675808364205     12.905810116159660
Si      7.663920220042947      7.628168300270310     14.332353866013916
C       8.758765965763368      8.842367299805046     12.905810116159660
Si      9.853611711483790      9.817859791711154     14.332353866013916
C      10.948457457204210     11.032058791245888     12.905810116159660
Si     12.043303202924632     12.007551283151995     14.332353866013916
C      13.138148948645053     13.221750282686731     12.905810116159660
Si     14.232994694365475     14.197242774592839     14.332353866013916
128

C       0.000000000000000      0.080500690595778     -0.223721746568857
Si      1.094845745720421      1.060419809043534      1.190519840235903
C       2.189691491440842      2.270192182036620     -0.223721746568857
Si      3.284537237161263      3.250111300484376      1.190519840235903
C       4.379382982881684      4.459883673477462     -0.223721746568857
Si      5.474228728602105      5.439802791925218      1.190519840235903
C       6.569074474322527      6.649575164918304     -0.223721746568857
Si      7.663920220042947      7.629494283366061      1.190519840235903
C       2.189691491440842      0.080500690595778      1.965969744871985
Si      3.284537237161263      1.060419809043534      3.380211331676746
C       4.379382982881684      2.270192182036620      1.965969744871985
Si      5.474228728602105      3.250111300484376      3.380211331676746
C       6.569074474322527      4.459883673477462      1.965969744871985
Si      7.663920220042947      5.439802791925218      3.380211331676746
C       8.758765965763368      6.649575164918304      1.965969744871985
Si      9.853611711483790      7.629494283366061      3.380211331676746
C       4.379382982881684      0.080500690595778      4.155661236312826
Si      5.474228728602105      1.060419809043534      5.569902823117587
C       6.569074474322527      2.270192182036620      4.155661236312826
Si      7.663920220042947      3.250111300484376      5.569902823117587
C       8.758765965763368      4.459883673477462      4.155661236312826
Si      9.853611711483790      5.439802791925218      5.569902823117587
C      10.948457457204210      6.649575164918304      4.155661236312826
Si     12.043303202924632      7.629494283366061      5.569902823117587
C       6.569074474322527      0.080500690595778      6.345352727753669
Si      7.663920220042947      1.060419809043534      7.759594314558430
C       8.758765965763368      2.270192182036620      6.345352727753669
Si      9.853611711483790      3.250111300484376      7.759594314558430
C      10.948457457204210      4.459883673477462      6.345352727753669
Si     12.043303202924632      5.439802791925218      7.759594314558430
C      13.138148948645053      6.649575164918304      6.345352727753669
Si     14.232994694365475      7.629494283366061      7.759594314558430
C       0.000000000000000      2.270192182036620      1.965969744871985
Si      1.094845745720421      3.250111300484376      3.380211331676746
C       2.189691491440842      4.459883673477462      1.965969744871985
Si      3.284537237161263      5.439802791925218      3.380211331676746
C       4.379382982881684      6.649575164918304      1.965969744871985
Si      5.474228728602105      7.629494283366061      3.380211331676746
C       6.569074474322527      8.839266656359145      1.965969744871985
Si      7.663920220042947      9.819185774806902      3.380211331676746
C       2.189691491440842      2.270192182036620      4.155661236312826
Si      3.284537237161263      3.250111300484376      5.569902823117587
C       4.379382982881684      4.459883673477462      4.155661236312826
Si      5.474228728602105      5.439802791925218      5.569902823117587
C       6.569074474322527      6.649575164918304      4.155661236312826
Si      7.663920220042947      7.629494283366061      5.569902823117587
C       8.758765965763368      8.839266656359145      4.155661236312826
Si      9.853611711483790      9.819185774806902      5.569902823117587
C       4.379382982881684      2.270192182036620      6.345352727753669
Si      5.474228728602105      3.250111300484376      7.759594314558430
C       6.569074474322527      4.459883673477462      6.345352727753669
Si      7.663920220042947      5.439802791925218      7.759594314558430
C       8.758765965763368      6.649575164918304      6.345352727753669
Si      9.853611711483790      7.629494283366061      7.759594314558430
C      10.948457457204210      8.839266656359145      6.345352727753669
Si     12.043303202924632      9.819185774806902      7.759594314558430
C       6.569074474322527      2.270192182036620      8.535044219194511
Si      7.663920220042947      3.250111300484376      9.949285805999272
C       8.758765965763368      4.459883673477462      8.535044219194511
Si      9.853611711483790      5.439802791925218      9.949285805999272
C      10.948457457204210      6.649575164918304      8.535044219194511
Si     12.043303202924632      7.629494283366061      9.949285805999272
C      13.138148948645053      8.839266656359145      8.535044219194511
Si     14.232994694365475      9.819185774806902      9.949285805999272
C       0.000000000000000      4.459883673477462      4.155661236312826
Si      1.094845745720421      5.439802791925218      5.569902823117587
C       2.189691491440842      6.649575164918304      4.155661236312826
Si      3.284537237161263      7.629494283366061      5.569902823117587
C       4.379382982881684      8.839266656359145      4.155661236312826
Si      5.474228728602105      9.819185774806902      5.569902823117587
C       6.569074474322527     11.028958147799987      4.155661236312826
Si      7.663920220042947     12.008877266247744      5.569902823117587
C       2.189691491440842      4.459883673477462      6.345352727753669
Si      3.284537237161263      5.439802791925218      7.759594314558430
C       4.379382982881684      6.649575164918304      6.345352727753669
Si      5.474228728602105      7.629494283366061      7.759594314558430
C       6.569074474322527      8.839266656359145      6.345352727753669
Si      7.663920220042947      9.819185774806902      7.759594314558430
C       8.758765965763368     11.028958147799987      6.345352727753669
Si      9.853611711483790     12.008877266247744      7.759594314558430
C       4.379382982881684      4.459883673477462      8.535044219194511
Si      5.474228728602105      5.439802791925218      9.949285805999272
C       6.569074474322527      6.649575164918304      8.535044219194511
Si      7.663920220042947      7.629494283366061      9.949285805999272
C       8.758765965763368      8.839266656359145      8.535044219194511
Si      9.853611711483790      9.819185774806902      9.949285805999272
C      10.948457457204210     11.028958147799987      8.535044219194511
Si     12.043303202924632     12.008877266247744      9.949285805999272
C       6.569074474322527      4.459883673477462     10.724735710635352
Si      7.663920220042947      5.439802791925218     12.138977297440114
C       8.758765965763368      6.649575164918304     10.724735710635352
Si      9.853611711483790      7.629494283366061     12.138977297440114
C      10.948457457204210      8.839266656359145     10.724735710635352
Si     12.043303202924632      9.819185774806902     12.138977297440114
C      13.138148948645053     11.028958147799987     10.724735710635352
Si     14.232994694365475     12.008877266247744     12.138977297440114
C       0.000000000000000      6.649575164918304      6.345352727753669
Si      1.094845745720421      7.629494283366061      7.759594314558430
C       2.189691491440842      8.839266656359145      6.345352727753669
Si      3.284537237161263      9.819185774806902      7.759594314558430
C       4.379382982881684     11.028958147799987      6.345352727753669
Si      5.474228728602105     12.008877266247744      7.759594314558430
C       6.569074474322527     13.218649639240830      6.345352727753669
Si      7.663920220042947     14.198568757688587      7.759594314558430
C       2.189691491440842      6.649575164918304      8.535044219194511
Si      3.284537237161263      7.629494283366061      9.949285805999272
C       4.379382982881684      8.839266656359145      8.535044219194511
Si      5.474228728602105      9.819185774806902      9.949285805999272
C       6.569074474322527     11.028958147799987      8.535044219194511
Si      7.663920220042947     12.008877266247744      9.949285805999272
C       8.758765965763368     13.218649639240830      8.535044219194511
Si      9.853611711483790     14.198568757688587      9.949285805999272
C       4.379382982881684      6.649575164918304     10.724735710635352
Si      5.474228728602105      7.629494283366061     12.138977297440114
C       6.569074474322527      8.839266656359145     10.724735710635352
Si      7.663920220042947      9.819185774806902     12.138977297440114
C       8.758765965763368     11.028958147799987     10.724735710635352
Si      9.853611711483790     12.008877266247744     12.138977297440114
C      10.948457457204210     13.218649639240830     10.724735710635352
Si     12.043303202924632     14.198568757688587     12.138977297440114
C       6.569074474322527      6.649575164918304     12.914427202076196
Si      7.663920220042947      7.629494283366061     14.328668788880957
C       8.758765965763368      8.839266656359145     12.914427202076196
Si      9.853611711483790      9.819185774806902     14.328668788880957
C      10.948457457204210     11.028958147799987     12.914427202076196
Si     12.043303202924632     12.008877266247744     14.328668788880957
C      13.138148948645053     13.218649639240830     12.914427202076196
Si     14.232994694365475     14.198568757688587     14.328668788880957
128

C       0.000000000000000      0.075417852980934     -0.209595888761889
Si      1.094845745720421      1.062593472953402      1.184478949371857
C       2.189691491440842      2.265109344421776     -0.209595888761889
Si      3.284537237161263      3.252284964394245      1.184478949371857
C       4.379382982881684      4.454800835862618     -0.209595888761889
Si      5.474228728602105      5.441976455835086      1.184478949371857
C       6.569074474322527      6.644492327303460     -0.209595888761889
Si      7.663920220042947      7.631667947275929      1.184478949371857
C       2.189691491440842      0.075417852980934      1.980095602678953
Si      3.284537237161263      1.062593472953402      3.374170440812700
C       4.379382982881684      2.265109344421776      1.980095602678953
Si      5.474228728602105      3.252284964394245      3.374170440812700
C       6.569074474322527      4.454800835862618      1.980095602678953
Si      7.663920220042947      5.441976455835086      3.374170440812700
C       8.758765965763368      6.644492327303460      1.980095602678953
Si      9.853611711483790      7.631667947275929      3.374170440812700
C       4.379382982881684      0.075417852980934      4.169787094119796
Si      5.474228728602105      1.062593472953402      5.563861932253541
C       6.569074474322527      2.265109344421776      4.169787094119796
Si      7.663920220042947      3.252284964394245      5.563861932253541
C       8.758765965763368      4.454800835862618      4.169787094119796
Si      9.853611711483790      5.441976455835086      5.563861932253541
C      10.948457457204210      6.644492327303460      4.169787094119796
Si     12.043303202924632      7.631667947275929      5.563861932253541
C       6.569074474322527      0.075417852980934      6.359478585560637
Si      7.663920220042947      1.062593472953402      7.753553423694384
C       8.758765965763368      2.265109344421776      6.359478585560637
Si      9.853611711483790      3.252284964394245      7.753553423694384
C      10.948457457204210      4.454800835862618      6.359478585560637
Si     12.043303202924632      5.441976455835086      7.753553423694384
C      13.138148948645053      6.644492327303460      6.359478585560637
Si     14.232994694365475      7.631667947275929      7.753553423694384
C       0.000000000000000      2.265109344421776      1.980095602678953
Si      1.094845745720421      3.252284964394245      3.374170440812700
C       2.189691491440842      4.454800835862618      1.980095602678953
Si      3.284537237161263      5.441976455835086      3.374170440812700
C       4.379382982881684      6.644492327303460      1.980095602678953
Si      5.474228728602105      7.631667947275929      3.374170440812700
C       6.569074474322527      8.834183818744302      1.980095602678953
Si      7.663920220042947      9.821359438716771      3.374170440812700
C       2.189691491440842      2.265109344421776      4.169787094119796
Si      3.284537237161263      3.252284964394245      5.563861932253541
C       4.379382982881684      4.454800835862618      4.169787094119796
Si      5.474228728602105      5.441976455835086      5.563861932253541
C       6.569074474322527      6.644492327303460      4.169787094119796
Si      7.663920220042947      7.631667947275929      5.563861932253541
C       8.758765965763368      8.834183818744302      4.169787094119796
Si      9.853611711483790      9.821359438716771      5.563861932253541
C       4.379382982881684      2.265109344421776      6.359478585560637
Si      5.474228728602105      3.252284964394245      7.753553423694384
C       6.569074474322527      4.454800835862618      6.359478585560637
Si      7.663920220042947      5.441976455835086      7.753553423694384
C       8.758765965763368      6.644492327303460      6.359478585560637
Si      9.853611711483790      7.631667947275929      7.753553423694384
C      10.948457457204210      8.834183818744302      6.359478585560637
Si     12.043303202924632      9.821359438716771      7.753553423694384
C       6.569074474322527      2.265109344421776      8.549170077001479
Si      7.663920220042947      3.252284964394245      9.943244915135226
C       8.758765965763368      4.454800835862618      8.549170077001479
Si      9.853611711483790      5.441976455835086      9.943244915135226
C      10.948457457204210      6.644492327303460      8.549170077001479
Si     12.043303202924632      7.631667947275929      9.943244915135226
C      13.138148948645053      8.834183818744302      8.549170077001479
Si     14.232994694365475      9.821359438716771      9.943244915135226
C       0.000000000000000      4.454800835862618      4.169787094119796
Si      1.094845745720421      5.441976455835086      5.563861932253541
C       2.189691491440842      6.644492327303460      4.169787094119796
Si      3.284537237161263      7.631667947275929      5.563861932253541
C       4.379382982881684      8.834183818744302      4.169787094119796
Si      5.474228728602105      9.821359438716771      5.563861932253541
C       6.569074474322527     11.023875310185144      4.169787094119796
Si      7.663920220042947     12.011050930157612      5.563861932253541
C       2.189691491440842      4.454800835862618      6.359478585560637
Si      3.284537237161263      5.441976455835086      7.753553423694384
C       4.379382982881684      6.644492327303460      6.359478585560637
Si      5.474228728602105      7.631667947275929      7.753553423694384
C       6.569074474322527      8.834183818744302      6.359478585560637
Si      7.663920220042947      9.821359438716771      7.753553423694384
C       8.758765965763368     11.023875310185144      6.359478585560637
Si      9.853611711483790     12.011050930157612      7.753553423694384
C       4.379382982881684      4.454800835862618      8.549170077001479
Si      5.474228728602105      5.441976455835086      9.943244915135226
C       6.569074474322527      6.644492327303460      8.549170077001479
Si      7.663920220042947      7.631667947275929      9.943244915135226
C       8.758765965763368      8.834183818744302      8.549170077001479
Si      9.853611711483790      9.821359438716771      9.943244915135226
C      10.948457457204210     11.023875310185144      8.549170077001479
Si     12.043303202924632     12.011050930157612      9.943244915135226
C       6.569074474322527      4.454800835862618     10.738861568442321
Si      7.663920220042947      5.441976455835086     12.132936406576068
C       8.758765965763368      6.644492327303460     10.738861568442321
Si      9.853611711483790      7.631667947275929     12.132936406576068
C      10.948457457204210      8.834183818744302     10.738861568442321
Si     12.043303202924632      9.821359438716771     12.132936406576068
C      13.138148948645053     11.023875310185144     10.738861568442321
Si     14.232994694365475     12.011050930157612     12.132936406576068
C       0.000000000000000      6.644492327303460      6.359478585560637
Si      1.094845745720421      7.631667947275929      7.753553423694384
C       2.189691491440842      8.834183818744302      6.359478585560637
Si      3.284537237161263      9.821359438716771      7.753553423694384
C       4.379382982881684     11.023875310185144      6.359478585560637
Si      5.474228728602105     12.011050930157612      7.753553423694384
C       6.569074474322527     13.213566801625987      6.359478585560637
Si      7.663920220042947     14.200742421598456      7.753553423694384
C       2.189691491440842      6.644492327303460      8.549170077001479
Si      3.284537237161263      7.631667947275929      9.943244915135226
C       4.379382982881684      8.834183818744302      8.549170077001479
Si      5.474228728602105      9.821359438716771      9.943244915135226
C       6.569074474322527     11.023875310185144      8.549170077001479
Si      7.663920220042947     12.011050930157612      9.943244915135226
C       8.758765965763368     13.213566801625987      8.549170077001479
Si      9.853611711483790     14.200742421598456      9.943244915135226
C       4.379382982881684      6.644492327303460     10.738861568442321
Si      5.474228728602105      7.631667947275929     12.132936406576068
C       6.569074474322527      8.834183818744302     10.738861568442321
Si      7.663920220042947      9.821359438716771     12.132936406576068
C       8.758765965763368     11.023875310185144     10.738861568442321
Si      9.853611711483790     12.011050930157612     12.132936406576068
C      10.948457457204210     13.213566801625987     10.738861568442321
Si     12.043303202924632     14.200742421598456     12.132936406576068
C       6.569074474322527      6.644492327303460     12.928553059883164
Si      7.663920220042947      7.631667947275929     14.322627898016911
C       8.758765965763368      8.834183818744302     12.928553059883164
Si      9.853611711483790      9.821359438716771     14.322627898016911
C      10.948457457204210     11.023875310185144     12.928553059883164
Si     12.043303202924632     12.011050930157612     14.322627898016911
C      13.138148948645053     13.213566801625987     12.928553059883164
Si     14.232994694365475     14.200742421598456     14.322627898016911
128

C       0.000000000000000      0.068477977528196     -0.190309084564729
Si      1.094845745720421      1.065561294857951      1.176230991558366
C       2.189691491440842      2.258169468969037     -0.190309084564729
Si      3.284537237161263      3.255252786298793      1.176230991558366
C       4.379382982881684      4.447860960409880     -0.190309084564729
Si      5.474228728602105      5.444944277739635      1.176230991558366
C       6.569074474322527      6.637552451850723     -0.190309084564729
Si      7.663920220042947      7.634635769180478      1.176230991558366
C       2.189691491440842      0.068477977528196      1.999382406876113
Si      3.284537237161263      1.065561294857951      3.365922482999208
C       4.379382982881684      2.258169468969037      1.999382406876113
Si      5.474228728602105      3.255252786298793      3.365922482999208
C       6.569074474322527      4.447860960409880      1.999382406876113
Si      7.663920220042947      5.444944277739635      3.365922482999208
C       8.758765965763368      6.637552451850723      1.999382406876113
Si      9.853611711483790      7.634635769180478      3.365922482999208
C       4.379382982881684      0.068477977528196      4.189073898316956
Si      5.474228728602105      1.065561294857951      5.555613974440050
C       6.569074474322527      2.258169468969037      4.189073898316956
Si      7.663920220042947      3.255252786298793      5.555613974440050
C       8.758765965763368      4.447860960409880      4.189073898316956
Si      9.853611711483790      5.444944277739635      5.555613974440050
C      10.948457457204210      6.637552451850723      4.189073898316956
Si     12.043303202924632      7.634635769180478      5.555613974440050
C       6.569074474322527      0.068477977528196      6.378765389757798
Si      7.663920220042947      1.065561294857951      7.745305465880892
C       8.758765965763368      2.258169468969037      6.378765389757798
Si      9.853611711483790      3.255252786298793      7.745305465880892
C      10.948457457204210      4.447860960409880      6.378765389757798
Si     12.043303202924632      5.444944277739635      7.745305465880892
C      13.138148948645053      6.637552451850723      6.378765389757798
Si     14.232994694365475      7.634635769180478      7.745305465880892
C       0.000000000000000      2.258169468969037      1.999382406876113
Si      1.094845745720421      3.255252786298793      3.365922482999208
C       2.189691491440842      4.447860960409880      1.999382406876113
Si      3.284537237161263      5.444944277739635      3.365922482999208
C       4.379382982881684      6.637552451850723      1.999382406876113
Si      5.474228728602105      7.634635769180478      3.365922482999208
C       6.569074474322527      8.827243943291563      1.999382406876113
Si      7.663920220042947      9.824327260621320      3.365922482999208
C       2.189691491440842      2.258169468969037      4.189073898316956
Si      3.284537237161263      3.255252786298793      5.555613974440050
C       4.379382982881684      4.447860960409880      4.189073898316956
Si      5.474228728602105      5.444944277739635      5.555613974440050
C       6.569074474322527      6.637552451850723      4.189073898316956
Si      7.663920220042947      7.634635769180478      5.555613974440050
C       8.758765965763368      8.827243943291563      4.189073898316956
Si      9.853611711483790      9.824327260621320      5.555613974440050
C       4.379382982881684      2.258169468969037      6.378765389757798
Si      5.474228728602105      3.255252786298793      7.745305465880892
C       6.569074474322527      4.447860960409880      6.378765389757798
Si      7.663920220042947      5.444944277739635      7.745305465880892
C       8.758765965763368      6.637552451850723      6.378765389757798
Si      9.853611711483790      7.634635769180478      7.745305465880892
C      10.948457457204210      8.827243943291563      6.378765389757798
Si     12.043303202924632      9.824327260621320      7.745305465880892
C       6.569074474322527      2.258169468969037      8.568456881198639
Si      7.663920220042947      3.255252786298793      9.934996957321735
C       8.758765965763368      4.447860960409880      8.568456881198639
Si      9.853611711483790      5.444944277739635      9.934996957321735
C      10.948457457204210      6.637552451850723      8.568456881198639
Si     12.043303202924632      7.634635769180478      9.934996957321735
C      13.138148948645053      8.827243943291563      8.568456881198639
Si     14.232994694365475      9.824327260621320      9.934996957321735
C       0.000000000000000      4.447860960409880      4.189073898316956
Si      1.094845745720421      5.444944277739635      5.555613974440050
C       2.189691491440842      6.637552451850723      4.189073898316956
Si      3.284537237161263      7.634635769180478      5.555613974440050
C       4.379382982881684      8.827243943291563      4.189073898316956
Si      5.474228728602105      9.824327260621320      5.555613974440050
C       6.569074474322527     11.016935434732405      4.189073898316956
Si      7.663920220042947     12.014018752062162      5.555613974440050
C       2.189691491440842      4.447860960409880      6.378765389757798
Si      3.284537237161263      5.444944277739635      7.745305465880892
C       4.379382982881684      6.637552451850723      6.378765389757798
Si      5.474228728602105      7.634635769180478      7.745305465880892
C       6.569074474322527      8.827243943291563      6.378765389757798
Si      7.663920220042947      9.824327260621320      7.745305465880892
C       8.758765965763368     11.016935434732405      6.378765389757798
Si      9.853611711483790     12.014018752062162      7.745305465880892
C       4.379382982881684      4.447860960409880      8.568456881198639
Si      5.474228728602105      5.444944277739635      9.934996957321735
C       6.569074474322527      6.637552451850723      8.568456881198639
Si      7.663920220042947      7.634635769180478      9.934996957321735
C       8.758765965763368      8.827243943291563      8.568456881198639
Si      9.853611711483790      9.824327260621320      9.934996957321735
C      10.948457457204210     11.016935434732405      8.568456881198639
Si     12.043303202924632     12.014018752062162      9.934996957321735
C       6.569074474322527      4.447860960409880     10.758148372639480
Si      7.663920220042947      5.444944277739635     12.124688448762576
C       8.758765965763368      6.637552451850723     10.758148372639480
Si      9.853611711483790      7.634635769180478     12.124688448762576
C      10.948457457204210      8.827243943291563     10.758148372639480
Si     12.043303202924632      9.824327260621320     12.124688448762576
C      13.138148948645053     11.016935434732405     10.758148372639480
Si     14.232994694365475     12.014018752062162     12.124688448762576
C       0.000000000000000      6.637552451850723      6.378765389757798
Si      1.094845745720421      7.634635769180478      7.745305465880892
C       2.189691491440842      8.827243943291563      6.378765389757798
Si      3.284537237161263      9.824327260621320      7.745305465880892
C       4.379382982881684     11.016935434732405      6.378765389757798
Si      5.474228728602105     12.014018752062162      7.745305465880892
C       6.569074474322527     13.206626926173248      6.378765389757798
Si      7.663920220042947     14.203710243503005      7.745305465880892
C       2.189691491440842      6.637552451850723      8.568456881198639
Si      3.284537237161263      7.634635769180478      9.934996957321735
C       4.379382982881684      8.827243943291563      8.568456881198639
Si      5.474228728602105      9.824327260621320      9.934996957321735
C       6.569074474322527     11.016935434732405      8.568456881198639
Si      7.663920220042947     12.014018752062162      9.934996957321735
C       8.758765965763368     13.206626926173248      8.568456881198639
Si      9.853611711483790     14.203710243503005      9.934996957321735
C       4.379382982881684      6.637552451850723     10.758148372639480
Si      5.474228728602105      7.634635769180478     12.124688448762576
C       6.569074474322527      8.827243943291563     10.758148372639480
Si      7.663920220042947      9.824327260621320     12.124688448762576
C       8.758765965763368     11.016935434732405     10.758148372639480
Si      9.853611711483790     12.014018752062162     12.124688448762576
C      10.948457457204210     13.206626926173248     10.758148372639480
Si     12.043303202924632     14.203710243503005     12.124688448762576
C       6.569074474322527      6.637552451850723     12.947839864080324
Si      7.663920220042947      7.634635769180478     14.314379940203420
C       8.758765965763368      8.827243943291563     12.947839864080324
Si      9.853611711483790      9.824327260621320     14.314379940203420
C      10.948457457204210     11.016935434732405     12.947839864080324
Si     12.043303202924632     12.014018752062162     14.314379940203420
C      13.138148948645053     13.206626926173248     12.947839864080324
Si     14.232994694365475     14.203710243503005     14.314379940203420
128

C       0.000000000000000      0.059851947003336     -0.166336239105944
Si      1.094845745720421      1.069250197132254      1.165979058890198
C       2.189691491440842      2.249543438444177     -0.166336239105944
Si      3.284537237161263      3.258941688573096      1.165979058890198
C       4.379382982881684      4.439234929885020     -0.166336239105944
Si      5.474228728602105      5.448633180013938      1.165979058890198
C       6.569074474322527      6.628926421325862     -0.166336239105944
Si      7.663920220042947      7.638324671454781      1.165979058890198
C       2.189691491440842      0.059851947003336      2.023355252334897
Si      3.284537237161263      1.069250197132254      3.355670550331040
C       4.379382982881684      2.249543438444177      2.023355252334897
Si      5.474228728602105      3.258941688573096      3.355670550331040
C       6.569074474322527      4.439234929885020      2.023355252334897
Si      7.663920220042947      5.448633180013938      3.355670550331040
C       8.758765965763368      6.628926421325862      2.023355252334897
Si      9.853611711483790      7.638324671454781      3.355670550331040
C       4.379382982881684      0.059851947003336      4.213046743775740
Si      5.474228728602105      1.069250197132254      5.545362041771882
C       6.569074474322527      2.249543438444177      4.213046743775740
Si      7.663920220042947      3.258941688573096      5.545362041771882
C       8.758765965763368      4.439234929885020      4.213046743775740
Si      9.853611711483790      5.448633180013938      5.545362041771882
C      10.948457457204210      6.628926421325862      4.213046743775740
Si     12.043303202924632      7.638324671454781      5.545362041771882
C       6.569074474322527      0.059851947003336      6.402738235216582
Si      7.663920220042947      1.069250197132254      7.735053533212724
C       8.758765965763368      2.249543438444177      6.402738235216582
Si      9.853611711483790      3.258941688573096      7.735053533212724
C      10.948457457204210      4.439234929885020      6.402738235216582
Si     12.043303202924632      5.448633180013938      7.735053533212724
C      13.138148948645053      6.628926421325862      6.402738235216582
Si     14.232994694365475      7.638324671454781      7.735053533212724
C       0.000000000000000      2.249543438444177      2.023355252334897
Si      1.094845745720421      3.258941688573096      3.355670550331040
C       2.189691491440842      4.439234929885020      2.023355252334897
Si      3.284537237161263      5.448633180013938      3.355670550331040
C       4.379382982881684      6.628926421325862      2.023355252334897
Si      5.474228728602105      7.638324671454781      3.355670550331040
C       6.569074474322527      8.818617912766705      2.023355252334897
Si      7.663920220042947      9.828016162895622      3.355670550331040
C       2.189691491440842      2.249543438444177      4.213046743775740
Si      3.284537237161263      3.258941688573096      5.545362041771882
C       4.379382982881684      4.439234929885020      4.213046743775740
Si      5.474228728602105      5.448633180013938      5.545362041771882
C       6.569074474322527      6.628926421325862      4.213046743775740
Si      7.663920220042947      7.638324671454781      5.545362041771882
C       8.758765965763368      8.818617912766705      4.213046743775740
Si      9.853611711483790      9.828016162895622      5.545362041771882
C       4.379382982881684      2.249543438444177      6.402738235216582
Si      5.474228728602105      3.258941688573096      7.735053533212724
C       6.569074474322527      4.439234929885020      6.402738235216582
Si      7.663920220042947      5.448633180013938      7.735053533212724
C       8.758765965763368      6.628926421325862      6.402738235216582
Si      9.853611711483790      7.638324671454781      7.735053533212724
C      10.948457457204210      8.818617912766705      6.402738235216582
Si     12.043303202924632      9.828016162895622      7.735053533212724
C       6.569074474322527      2.249543438444177      8.592429726657423
Si      7.663920220042947      3.258941688573096      9.924745024653568
C       8.758765965763368      4.439234929885020      8.592429726657423
Si      9.853611711483790      5.448633180013938      9.924745024653568
C      10.948457457204210      6.628926421325862      8.592429726657423
Si     12.043303202924632      7.638324671454781      9.924745024653568
C      13.138148948645053      8.818617912766705      8.592429726657423
Si     14.232994694365475      9.828016162895622      9.924745024653568
C       0.000000000000000      4.439234929885020      4.213046743775740
Si      1.094845745720421      5.448633180013938      5.545362041771882
C       2.189691491440842      6.628926421325862      4.213046743775740
Si      3.284537237161263      7.638324671454781      5.545362041771882
C       4.379382982881684      8.818617912766705      4.213046743775740
Si      5.474228728602105      9.828016162895622      5.545362041771882
C       6.569074474322527     11.008309404207546      4.213046743775740
Si      7.663920220042947     12.017707654336464      5.545362041771882
C       2.189691491440842      4.439234929885020      6.402738235216582
Si      3.284537237161263      5.448633180013938      7.735053533212724
C       4.379382982881684      6.628926421325862      6.402738235216582
Si      5.474228728602105      7.638324671454781      7.735053533212724
C       6.569074474322527      8.818617912766705      6.402738235216582
Si      7.663920220042947      9.828016162895622      7.735053533212724
C       8.758765965763368     11.008309404207546      6.402738235216582
Si      9.853611711483790     12.017707654336464      7.735053533212724
C       4.379382982881684      4.439234929885020      8.592429726657423
Si      5.474228728602105      5.448633180013938      9.924745024653568
C       6.569074474322527      6.628926421325862      8.592429726657423
Si      7.663920220042947      7.638324671454781      9.924745024653568
C       8.758765965763368      8.818617912766705      8.592429726657423
Si      9.853611711483790      9.828016162895622      9.924745024653568
C      10.948457457204210     11.008309404207546      8.592429726657423
Si     12.043303202924632     12.017707654336464      9.924745024653568
C       6.569074474322527      4.439234929885020     10.782121218098265
Si      7.663920220042947      5.448633180013938     12.114436516094408
C       8.758765965763368      6.628926421325862     10.782121218098265
Si      9.853611711483790      7.638324671454781     12.114436516094408
C      10.948457457204210      8.818617912766705     10.782121218098265
Si     12.043303202924632      9.828016162895622     12.114436516094408
C      13.138148948645053     11.008309404207546     10.782121218098265
Si     14.232994694365475     12.017707654336464     12.114436516094408
C       0.000000000000000      6.628926421325862      6.402738235216582
Si      1.094845745720421      7.638324671454781      7.735053533212724
C       2.189691491440842      8.818617912766705      6.402738235216582
Si      3.284537237161263      9.828016162895622      7.735053533212724
C       4.379382982881684     11.008309404207546      6.402738235216582
Si      5.474228728602105     12.017707654336464      7.735053533212724
C       6.569074474322527     13.198000895648390      6.402738235216582
Si      7.663920220042947     14.207399145777307      7.735053533212724
C       2.189691491440842      6.628926421325862      8.592429726657423
Si      3.284537237161263      7.638324671454781      9.924745024653568
C       4.379382982881684      8.818617912766705      8.592429726657423
Si      5.474228728602105      9.828016162895622      9.924745024653568
C       6.569074474322527     11.008309404207546      8.592429726657423
Si      7.663920220042947     12.017707654336464      9.924745024653568
C       8.758765965763368     13.198000895648390      8.592429726657423
Si      9.853611711483790     14.207399145777307      9.924745024653568
C       4.379382982881684      6.628926421325862     10.782121218098265
Si      5.474228728602105      7.638324671454781     12.114436516094408
C       6.569074474322527      8.818617912766705     10.782121218098265
Si      7.663920220042947      9.828016162895622     12.114436516094408
C       8.758765965763368     11.008309404207546     10.782121218098265
Si      9.853611711483790     12.017707654336464     12.114436516094408
C      10.948457457204210     13.198000895648390     10.782121218098265
Si     12.043303202924632     14.207399145777307     12.114436516094408
C       6.569074474322527      6.628926421325862     12.971812709539108
Si      7.663920220042947      7.638324671454781     14.304128007535251
C       8.758765965763368      8.818617912766705     12.971812709539108
Si      9.853611711483790      9.828016162895622     14.304128007535251
C      10.948457457204210     11.008309404207546     12.971812709539108
Si     12.043303202924632     12.017707654336464     14.304128007535251
C      13.138148948645053     13.198000895648390     12.971812709539108
Si     14.232994694365475     14.207399145777307     14.304128007535251
128

C       0.000000000000000      0.049752162906030     -0.138267643402044
Si      1.094845745720421      1.073569346759553      1.153975587973859
C       2.189691491440842      2.239443654346871     -0.138267643402044
Si      3.284537237161263      3.263260838200396      1.153975587973859
C       4.379382982881684      4.429135145787714     -0.138267643402044
Si      5.474228728602105      5.452952329641238      1.153975587973859
C       6.569074474322527      6.618826637228556     -0.138267643402044
Si      7.663920220042947      7.642643821082080      1.153975587973859
C       2.189691491440842      0.049752162906030      2.051423848038798
Si      3.284537237161263      1.073569346759553      3.343667079414701
C       4.379382982881684      2.239443654346871      2.051423848038798
Si      5.474228728602105      3.263260838200396      3.343667079414701
C       6.569074474322527      4.429135145787714      2.051423848038798
Si      7.663920220042947      5.452952329641238      3.343667079414701
C       8.758765965763368      6.618826637228556      2.051423848038798
Si      9.853611711483790      7.642643821082080      3.343667079414701
C       4.379382982881684      0.049752162906030      4.241115339479641
Si      5.474228728602105      1.073569346759553      5.533358570855543
C       6.569074474322527      2.239443654346871      4.241115339479641
Si      7.663920220042947      3.263260838200396      5.533358570855543
C       8.758765965763368      4.429135145787714      4.241115339479641
Si      9.853611711483790      5.452952329641238      5.533358570855543
C      10.948457457204210      6.618826637228556      4.241115339479641
Si     12.043303202924632      7.642643821082080      5.533358570855543
C       6.569074474322527      0.049752162906030      6.430806830920483
Si      7.663920220042947      1.073569346759553      7.723050062296386
C       8.758765965763368      2.239443654346871      6.430806830920483
Si      9.853611711483790      3.263260838200396      7.723050062296386
C      10.948457457204210      4.429135145787714      6.430806830920483
Si     12.043303202924632      5.452952329641238      7.723050062296386
C      13.138148948645053      6.618826637228556      6.430806830920483
Si     14.232994694365475      7.642643821082080      7.723050062296386
C       0.000000000000000      2.239443654346871      2.051423848038798
Si      1.094845745720421      3.263260838200396      3.343667079414701
C       2.189691491440842      4.429135145787714      2.051423848038798
Si      3.284537237161263      5.452952329641238      3.343667079414701
C       4.379382982881684      6.618826637228556      2.051423848038798
Si      5.474228728602105      7.642643821082080      3.343667079414701
C       6.569074474322527      8.808518128669398      2.051423848038798
Si      7.663920220042947      9.832335312522922      3.343667079414701
C       2.189691491440842      2.239443654346871      4.241115339479641
Si      3.284537237161263      3.263260838200396      5.533358570855543
C       4.379382982881684      4.429135145787714      4.241115339479641
Si      5.474228728602105      5.452952329641238      5.533358570855543
C       6.569074474322527      6.618826637228556      4.241115339479641
Si      7.663920220042947      7.642643821082080      5.533358570855543
C       8.758765965763368      8.808518128669398      4.241115339479641
Si      9.853611711483790      9.832335312522922      5.533358570855543
C       4.379382982881684      2.239443654346871      6.430806830920483
Si      5.474228728602105      3.263260838200396      7.723050062296386
C       6.569074474322527      4.429135145787714      6.430806830920483
Si      7.663920220042947      5.452952329641238      7.723050062296386
C       8.758765965763368      6.618826637228556      6.430806830920483
Si      9.853611711483790      7.642643821082080      7.723050062296386
C      10.948457457204210      8.808518128669398      6.430806830920483
Si     12.043303202924632      9.832335312522922      7.723050062296386
C       6.569074474322527      2.239443654346871      8.620498322361325
Si      7.663920220042947      3.263260838200396      9.912741553737227
C       8.758765965763368      4.429135145787714      8.620498322361325
Si      9.853611711483790      5.452952329641238      9.912741553737227
C      10.948457457204210      6.618826637228556      8.620498322361325
Si     12.043303202924632      7.642643821082080      9.912741553737227
C      13.138148948645053      8.808518128669398      8.620498322361325
Si     14.232994694365475      9.832335312522922      9.912741553737227
C       0.000000000000000      4.429135145787714      4.241115339479641
Si      1.094845745720421      5.452952329641238      5.533358570855543
C       2.189691491440842      6.618826637228556      4.241115339479641
Si      3.284537237161263      7.642643821082080      5.533358570855543
C       4.379382982881684      8.808518128669398      4.241115339479641
Si      5.474228728602105      9.832335312522922      5.533358570855543
C       6.569074474322527     10.998209620110240      4.241115339479641
Si      7.663920220042947     12.022026803963763      5.533358570855543
C       2.189691491440842      4.429135145787714      6.430806830920483
Si      3.284537237161263      5.452952329641238      7.723050062296386
C       4.379382982881684      6.618826637228556      6.430806830920483
Si      5.474228728602105      7.642643821082080      7.723050062296386
C       6.569074474322527      8.808518128669398      6.430806830920483
Si      7.663920220042947      9.832335312522922      7.723050062296386
C       8.758765965763368     10.998209620110240      6.430806830920483
Si      9.853611711483790     12.022026803963763      7.723050062296386
C       4.379382982881684      4.429135145787714      8.620498322361325
Si      5.474228728602105      5.452952329641238      9.912741553737227
C       6.569074474322527      6.618826637228556      8.620498322361325
Si      7.663920220042947      7.642643821082080      9.912741553737227
C       8.758765965763368      8.808518128669398      8.620498322361325
Si      9.853611711483790      9.832335312522922      9.912741553737227
C      10.948457457204210     10.998209620110240      8.620498322361325
Si     12.043303202924632     12.022026803963763      9.912741553737227
C       6.569074474322527      4.429135145787714     10.810189813802166
Si      7.663920220042947      5.452952329641238     12.102433045178069
C       8.758765965763368      6.618826637228556     10.810189813802166
Si      9.853611711483790      7.642643821082080     12.102433045178069
C      10.948457457204210      8.808518128669398     10.810189813802166
Si     12.043303202924632      9.832335312522922     12.102433045178069
C      13.138148948645053     10.998209620110240     10.810189813802166
Si     14.232994694365475     12.022026803963763     12.102433045178069
C       0.000000000000000      6.618826637228556      6.430806830920483
Si      1.094845745720421      7.642643821082080      7.723050062296386
C       2.189691491440842      8.808518128669398      6.430806830920483
Si      3.284537237161263      9.832335312522922      7.723050062296386
C       4.379382982881684     10.998209620110240      6.430806830920483
Si      5.474228728602105     12.022026803963763      7.723050062296386
C       6.569074474322527     13.187901111551083      6.430806830920483
Si      7.663920220042947     14.211718295404607      7.723050062296386
C       2.189691491440842      6.618826637228556      8.620498322361325
Si      3.284537237161263      7.642643821082080      9.912741553737227
C       4.379382982881684      8.808518128669398      8.620498322361325
Si      5.474228728602105      9.832335312522922      9.912741553737227
C       6.569074474322527     10.998209620110240      8.620498322361325
Si      7.663920220042947     12.022026803963763      9.912741553737227
C       8.758765965763368     13.187901111551083      8.620498322361325
Si      9.853611711483790     14.211718295404607      9.912741553737227
C       4.379382982881684      6.618826637228556     10.810189813802166
Si      5.474228728602105      7.642643821082080     12.102433045178069
C       6.569074474322527      8.808518128669398     10.810189813802166
Si      7.663920220042947      9.832335312522922     12.102433045178069
C       8.758765965763368     10.998209620110240     10.810189813802166
Si      9.853611711483790     12.022026803963763     12.102433045178069
C      10.948457457204210     13.187901111551083     10.810189813802166
Si     12.043303202924632     14.211718295404607     12.102433045178069
C       6.569074474322527      6.618826637228556     12.999881305243010
Si      7.663920220042947      7.642643821082080     14.292124536618912
C       8.758765965763368      8.808518128669398     12.999881305243010
Si      9.853611711483790      9.832335312522922     14.292124536618912
C      10.948457457204210     10.998209620110240     12.999881305243010
Si     12.043303202924632     12.022026803963763     14.292124536618912
C      13.138148948645053     13.187901111551083     12.999881305243010
Si     14.232994694365475     14.211718295404607     14.292124536618912
128

C       0.000000000000000      0.038427315440015     -0.106794439433586
Si      1.094845745720421      1.078412391941589      1.140516144100545
C       2.189691491440842      2.228118806880857     -0.106794439433586
Si      3.284537237161263      3.268103883382431      1.140516144100545
C       4.379382982881684      4.417810298321699     -0.106794439433586
Si      5.474228728602105      5.457795374823273      1.140516144100545
C       6.569074474322527      6.607501789762542     -0.106794439433586
Si      7.663920220042947      7.647486866264115      1.140516144100545
C       2.189691491440842      0.038427315440015      2.082897052007256
Si      3.284537237161263      1.078412391941589      3.330207635541387
C       4.379382982881684      2.228118806880857      2.082897052007256
Si      5.474228728602105      3.268103883382431      3.330207635541387
C       6.569074474322527      4.417810298321699      2.082897052007256
Si      7.663920220042947      5.457795374823273      3.330207635541387
C       8.758765965763368      6.607501789762542      2.082897052007256
Si      9.853611711483790      7.647486866264115      3.330207635541387
C       4.379382982881684      0.038427315440015      4.272588543448099
Si      5.474228728602105      1.078412391941589      5.519899126982229
C       6.569074474322527      2.228118806880857      4.272588543448099
Si      7.663920220042947      3.268103883382431      5.519899126982229
C       8.758765965763368      4.417810298321699      4.272588543448099
Si      9.853611711483790      5.457795374823273      5.519899126982229
C      10.948457457204210      6.607501789762542      4.272588543448099
Si     12.043303202924632      7.647486866264115      5.519899126982229
C       6.569074474322527      0.038427315440015      6.462280034888941
Si      7.663920220042947      1.078412391941589      7.709590618423071
C       8.758765965763368      2.228118806880857      6.462280034888941
Si      9.853611711483790      3.268103883382431      7.709590618423071
C      10.948457457204210      4.417810298321699      6.462280034888941
Si     12.043303202924632      5.457795374823273      7.709590618423071
C      13.138148948645053      6.607501789762542      6.462280034888941
Si     14.232994694365475      7.647486866264115      7.709590618423071
C       0.000000000000000      2.228118806880857      2.082897052007256
Si      1.094845745720421      3.268103883382431      3.330207635541387
C       2.189691491440842      4.417810298321699      2.082897052007256
Si      3.284537237161263      5.457795374823273      3.330207635541387
C       4.379382982881684      6.607501789762542      2.082897052007256
Si      5.474228728602105      7.647486866264115      3.330207635541387
C       6.569074474322527      8.797193281203384      2.082897052007256
Si      7.663920220042947      9.837178357704959      3.330207635541387
C       2.189691491440842      2.228118806880857      4.272588543448099
Si      3.284537237161263      3.268103883382431      5.519899126982229
C       4.379382982881684      4.417810298321699      4.272588543448099
Si      5.474228728602105      5.457795374823273      5.519899126982229
C       6.569074474322527      6.607501789762542      4.272588543448099
Si      7.663920220042947      7.647486866264115      5.519899126982229
C       8.758765965763368      8.797193281203384      4.272588543448099
Si      9.853611711483790      9.837178357704959      5.519899126982229
C       4.379382982881684      2.228118806880857      6.462280034888941
Si      5.474228728602105      3.268103883382431      7.709590618423071
C       6.569074474322527      4.417810298321699      6.462280034888941
Si      7.663920220042947      5.457795374823273      7.709590618423071
C       8.758765965763368      6.607501789762542      6.462280034888941
Si      9.853611711483790      7.647486866264115      7.709590618423071
C      10.948457457204210      8.797193281203384      6.462280034888941
Si     12.043303202924632      9.837178357704959      7.709590618423071
C       6.569074474322527      2.228118806880857      8.651971526329783
Si      7.663920220042947      3.268103883382431      9.899282109863913
C       8.758765965763368      4.417810298321699      8.651971526329783
Si      9.853611711483790      5.457795374823273      9.899282109863913
C      10.948457457204210      6.607501789762542      8.651971526329783
Si     12.043303202924632      7.647486866264115      9.899282109863913
C      13.138148948645053      8.797193281203384      8.651971526329783
Si     14.232994694365475      9.837178357704959      9.899282109863913
C       0.000000000000000      4.417810298321699      4.272588543448099
Si      1.094845745720421      5.457795374823273      5.519899126982229
C       2.189691491440842      6.607501789762542      4.272588543448099
Si      3.284537237161263      7.647486866264115      5.519899126982229
C       4.379382982881684      8.797193281203384      4.272588543448099
Si      5.474228728602105      9.837178357704959      5.519899126982229
C       6.569074474322527     10.986884772644226      4.272588543448099
Si      7.663920220042947     12.026869849145800      5.519899126982229
C       2.189691491440842      4.417810298321699      6.462280034888941
Si      3.284537237161263      5.457795374823273      7.709590618423071
C       4.379382982881684      6.607501789762542      6.462280034888941
Si      5.474228728602105      7.647486866264115      7.709590618423071
C       6.569074474322527      8.797193281203384      6.462280034888941
Si      7.663920220042947      9.837178357704959      7.709590618423071
C       8.758765965763368     10.986884772644226      6.462280034888941
Si      9.853611711483790     12.026869849145800      7.709590618423071
C       4.379382982881684      4.417810298321699      8.651971526329783
Si      5.474228728602105      5.457795374823273      9.899282109863913
C       6.569074474322527      6.607501789762542      8.651971526329783
Si      7.663920220042947      7.647486866264115      9.899282109863913
C       8.758765965763368      8.797193281203384      8.651971526329783
Si      9.853611711483790      9.837178357704959      9.899282109863913
C      10.948457457204210     10.986884772644226      8.651971526329783
Si     12.043303202924632     12.026869849145800      9.899282109863913
C       6.569074474322527      4.417810298321699     10.841663017770625
Si      7.663920220042947      5.457795374823273     12.088973601304755
C       8.758765965763368      6.607501789762542     10.841663017770625
Si      9.853611711483790      7.647486866264115     12.088973601304755
C      10.948457457204210      8.797193281203384     10.841663017770625
Si     12.043303202924632      9.837178357704959     12.088973601304755
C      13.138148948645053     10.986884772644226     10.841663017770625
Si     14.232994694365475     12.026869849145800     12.088973601304755
C       0.000000000000000      6.607501789762542      6.462280034888941
Si      1.094845745720421      7.647486866264115      7.709590618423071
C       2.189691491440842      8.797193281203384      6.462280034888941
Si      3.284537237161263      9.837178357704959      7.709590618423071
C       4.379382982881684     10.986884772644226      6.462280034888941
Si      5.474228728602105     12.026869849145800      7.709590618423071
C       6.569074474322527     13.176576264085069      6.462280034888941
Si      7.663920220042947     14.216561340586644      7.709590618423071
C       2.189691491440842      6.607501789762542      8.651971526329783
Si      3.284537237161263      7.647486866264115      9.899282109863913
C       4.379382982881684      8.797193281203384      8.651971526329783
Si      5.474228728602105      9.837178357704959      9.899282109863913
C       6.569074474322527     10.986884772644226      8.651971526329783
Si      7.663920220042947     12.026869849145800      9.899282109863913
C       8.758765965763368     13.176576264085069      8.651971526329783
Si      9.853611711483790     14.216561340586644      9.899282109863913
C       4.379382982881684      6.607501789762542     10.841663017770625
Si      5.474228728602105      7.647486866264115     12.088973601304755
C       6.569074474322527      8.797193281203384     10.841663017770625
Si      7.663920220042947      9.837178357704959     12.088973601304755
C       8.758765965763368     10.986884772644226     10.841663017770625
Si      9.853611711483790     12.026869849145800     12.088973601304755
C      10.948457457204210     13.176576264085069     10.841663017770625
Si     12.043303202924632     14.216561340586644     12.088973601304755
C       6.569074474322527      6.607501789762542     13.031354509211468
Si      7.663920220042947      7.647486866264115     14.278665092745598
C       8.758765965763368      8.797193281203384     13.031354509211468
Si      9.853611711483790      9.837178357704959     14.278665092745598
C      10.948457457204210     10.986884772644226     13.031354509211468
Si     12.043303202924632     12.026869849145800     14.278665092745598
C      13.138148948645053     13.176576264085069     13.031354509211468
Si     14.232994694365475     14.216561340586644     14.278665092745598
128

C       0.000000000000000      0.026156259934919     -0.072691601935848
Si      1.094845745720421      1.083660080832834      1.125932143447750
C       2.189691491440842      2.215847751375761     -0.072691601935848
Si      3.284537237161263      3.273351572273676      1.125932143447750
C       4.379382982881684      4.405539242816603     -0.072691601935848
Si      5.474228728602105      5.463043063714518      1.125932143447750
C       6.569074474322527      6.595230734257446     -0.072691601935848
Si      7.663920220042947      7.652734555155360      1.125932143447750
C       2.189691491440842      0.026156259934919      2.116999889504994
Si      3.284537237161263      1.083660080832834      3.315623634888592
C       4.379382982881684      2.215847751375761      2.116999889504994
Si      5.474228728602105      3.273351572273676      3.315623634888592
C       6.569074474322527      4.405539242816603      2.116999889504994
Si      7.663920220042947      5.463043063714518      3.315623634888592
C       8.758765965763368      6.595230734257446      2.116999889504994
Si      9.853611711483790      7.652734555155360      3.315623634888592
C       4.379382982881684      0.026156259934919      4.306691380945836
Si      5.474228728602105      1.083660080832834      5.505315126329434
C       6.569074474322527      2.215847751375761      4.306691380945836
Si      7.663920220042947      3.273351572273676      5.505315126329434
C       8.758765965763368      4.405539242816603      4.306691380945836
Si      9.853611711483790      5.463043063714518      5.505315126329434
C      10.948457457204210      6.595230734257446      4.306691380945836
Si     12.043303202924632      7.652734555155360      5.505315126329434
C       6.569074474322527      0.026156259934919      6.496382872386678
Si      7.663920220042947      1.083660080832834      7.695006617770276
C       8.758765965763368      2.215847751375761      6.496382872386678
Si      9.853611711483790      3.273351572273676      7.695006617770276
C      10.948457457204210      4.405539242816603      6.496382872386678
Si     12.043303202924632      5.463043063714518      7.695006617770276
C      13.138148948645053      6.595230734257446      6.496382872386678
Si     14.232994694365475      7.652734555155360      7.695006617770276
C       0.000000000000000      2.215847751375761      2.116999889504994
Si      1.094845745720421      3.273351572273676      3.315623634888592
C       2.189691491440842      4.405539242816603      2.116999889504994
Si      3.284537237161263      5.463043063714518      3.315623634888592
C       4.379382982881684      6.595230734257446      2.116999889504994
Si      5.474228728602105      7.652734555155360      3.315623634888592
C       6.569074474322527      8.784922225698288      2.116999889504994
Si      7.663920220042947      9.842426046596202      3.315623634888592
C       2.189691491440842      2.215847751375761      4.306691380945836
Si      3.284537237161263      3.273351572273676      5.505315126329434
C       4.379382982881684      4.405539242816603      4.306691380945836
Si      5.474228728602105      5.463043063714518      5.505315126329434
C       6.569074474322527      6.595230734257446      4.306691380945836
Si      7.663920220042947      7.652734555155360      5.505315126329434
C       8.758765965763368      8.784922225698288      4.306691380945836
Si      9.853611711483790      9.842426046596202      5.505315126329434
C       4.379382982881684      2.215847751375761      6.496382872386678
Si      5.474228728602105      3.273351572273676      7.695006617770276
C       6.569074474322527      4.405539242816603      6.496382872386678
Si      7.663920220042947      5.463043063714518      7.695006617770276
C       8.758765965763368      6.595230734257446      6.496382872386678
Si      9.853611711483790      7.652734555155360      7.695006617770276
C      10.948457457204210      8.784922225698288      6.496382872386678
Si     12.043303202924632      9.842426046596202      7.695006617770276
C       6.569074474322527      2.215847751375761      8.686074363827521
Si      7.663920220042947      3.273351572273676      9.884698109211119
C       8.758765965763368      4.405539242816603      8.686074363827521
Si      9.853611711483790      5.463043063714518      9.884698109211119
C      10.948457457204210      6.595230734257446      8.686074363827521
Si     12.043303202924632      7.652734555155360      9.884698109211119
C      13.138148948645053      8.784922225698288      8.686074363827521
Si     14.232994694365475      9.842426046596202      9.884698109211119
C       0.000000000000000      4.405539242816603      4.306691380945836
Si      1.094845745720421      5.463043063714518      5.505315126329434
C       2.189691491440842      6.595230734257446      4.306691380945836
Si      3.284537237161263      7.652734555155360      5.505315126329434
C       4.379382982881684      8.784922225698288      4.306691380945836
Si      5.474228728602105      9.842426046596202      5.505315126329434
C       6.569074474322527     10.974613717139130      4.306691380945836
Si      7.663920220042947     12.032117538037044      5.505315126329434
C       2.189691491440842      4.405539242816603      6.496382872386678
Si      3.284537237161263      5.463043063714518      7.695006617770276
C       4.379382982881684      6.595230734257446      6.496382872386678
Si      5.474228728602105      7.652734555155360      7.695006617770276
C       6.569074474322527      8.784922225698288      6.496382872386678
Si      7.663920220042947      9.842426046596202      7.695006617770276
C       8.758765965763368     10.974613717139130      6.496382872386678
Si      9.853611711483790     12.032117538037044      7.695006617770276
C       4.379382982881684      4.405539242816603      8.686074363827521
Si      5.474228728602105      5.463043063714518      9.884698109211119
C       6.569074474322527      6.595230734257446      8.686074363827521
Si      7.663920220042947      7.652734555155360      9.884698109211119
C       8.758765965763368      8.784922225698288      8.686074363827521
Si      9.853611711483790      9.842426046596202      9.884698109211119
C      10.948457457204210     10.974613717139130      8.686074363827521
Si     12.043303202924632     12.032117538037044      9.884698109211119
C       6.569074474322527      4.405539242816603     10.875765855268362
Si      7.663920220042947      5.463043063714518     12.074389600651960
C       8.758765965763368      6.595230734257446     10.875765855268362
Si      9.853611711483790      7.652734555155360     12.074389600651960
C      10.948457457204210      8.784922225698288     10.875765855268362
Si     12.043303202924632      9.842426046596202     12.074389600651960
C      13.138148948645053     10.974613717139130     10.875765855268362
Si     14.232994694365475     12.032117538037044     12.074389600651960
C       0.000000000000000      6.595230734257446      6.496382872386678
Si      1.094845745720421      7.652734555155360      7.695006617770276
C       2.189691491440842      8.784922225698288      6.496382872386678
Si      3.284537237161263      9.842426046596202      7.695006617770276
C       4.379382982881684     10.974613717139130      6.496382872386678
Si      5.474228728602105     12.032117538037044      7.695006617770276
C       6.569074474322527     13.164305208579973      6.496382872386678
Si      7.663920220042947     14.221809029477887      7.695006617770276
C       2.189691491440842      6.595230734257446      8.686074363827521
Si      3.284537237161263      7.652734555155360      9.884698109211119
C       4.379382982881684      8.784922225698288      8.686074363827521
Si      5.474228728602105      9.842426046596202      9.884698109211119
C       6.569074474322527     10.974613717139130      8.686074363827521
Si      7.663920220042947     12.032117538037044      9.884698109211119
C       8.758765965763368     13.164305208579973      8.686074363827521
Si      9.853611711483790     14.221809029477887      9.884698109211119
C       4.379382982881684      6.595230734257446     10.875765855268362
Si      5.474228728602105      7.652734555155360     12.074389600651960
C       6.569074474322527      8.784922225698288     10.875765855268362
Si      7.663920220042947      9.842426046596202     12.074389600651960
C       8.758765965763368     10.974613717139130     10.875765855268362
Si      9.853611711483790     12.032117538037044     12.074389600651960
C      10.948457457204210     13.164305208579973     10.875765855268362
Si     12.043303202924632     14.221809029477887     12.074389600651960
C       6.569074474322527      6.595230734257446     13.065457346709206
Si      7.663920220042947      7.652734555155360     14.264081092092804
C       8.758765965763368      8.784922225698288     13.065457346709206
Si      9.853611711483790      9.842426046596202     14.264081092092804
C      10.948457457204210     10.974613717139130     13.065457346709206
Si     12.043303202924632     12.032117538037044     14.264081092092804
C      13.138148948645053     13.164305208579973     13.065457346709206
Si     14.232994694365475     14.221809029477887     14.264081092092804
128

C       0.000000000000000      0.013241150502576     -0.036798855948855
Si      1.094845745720421      1.089183197916704      1.110582692513069
C       2.189691491440842      2.202932641943418     -0.036798855948855
Si      3.284537237161263      3.278874689357547      1.110582692513069
C       4.379382982881684      4.392624133384260     -0.036798855948855
Si      5.474228728602105      5.468566180798388      1.110582692513069
C       6.569074474322527      6.582315624825102     -0.036798855948855
Si      7.663920220042947      7.658257672239230      1.110582692513069
C       2.189691491440842      0.013241150502576      2.152892635491987
Si      3.284537237161263      1.089183197916704      3.300274183953911
C       4.379382982881684      2.202932641943418      2.152892635491987
Si      5.474228728602105      3.278874689357547      3.300274183953911
C       6.569074474322527      4.392624133384260      2.152892635491987
Si      7.663920220042947      5.468566180798388      3.300274183953911
C       8.758765965763368      6.582315624825102      2.152892635491987
Si      9.853611711483790      7.658257672239230      3.300274183953911
C       4.379382982881684      0.013241150502576      4.342584126932829
Si      5.474228728602105      1.089183197916704      5.489965675394753
C       6.569074474322527      2.202932641943418      4.342584126932829
Si      7.663920220042947      3.278874689357547      5.489965675394753
C       8.758765965763368      4.392624133384260      4.342584126932829
Si      9.853611711483790      5.468566180798388      5.489965675394753
C      10.948457457204210      6.582315624825102      4.342584126932829
Si     12.043303202924632      7.658257672239230      5.489965675394753
C       6.569074474322527      0.013241150502576      6.532275618373672
Si      7.663920220042947      1.089183197916704      7.679657166835596
C       8.758765965763368      2.202932641943418      6.532275618373672
Si      9.853611711483790      3.278874689357547      7.679657166835596
C      10.948457457204210      4.392624133384260      6.532275618373672
Si     12.043303202924632      5.468566180798388      7.679657166835596
C      13.138148948645053      6.582315624825102      6.532275618373672
Si     14.232994694365475      7.658257672239230      7.679657166835596
C       0.000000000000000      2.202932641943418      2.152892635491987
Si      1.094845745720421      3.278874689357547      3.300274183953911
C       2.189691491440842      4.392624133384260      2.152892635491987
Si      3.284537237161263      5.468566180798388      3.300274183953911
C       4.379382982881684      6.582315624825102      2.152892635491987
Si      5.474228728602105      7.658257672239230      3.300274183953911
C       6.569074474322527      8.772007116265945      2.152892635491987
Si      7.663920220042947      9.847949163680074      3.300274183953911
C       2.189691491440842      2.202932641943418      4.342584126932829
Si      3.284537237161263      3.278874689357547      5.489965675394753
C       4.379382982881684      4.392624133384260      4.342584126932829
Si      5.474228728602105      5.468566180798388      5.489965675394753
C       6.569074474322527      6.582315624825102      4.342584126932829
Si      7.663920220042947      7.658257672239230      5.489965675394753
C       8.758765965763368      8.772007116265945      4.342584126932829
Si      9.853611711483790      9.847949163680074      5.489965675394753
C       4.379382982881684      2.202932641943418      6.532275618373672
Si      5.474228728602105      3.278874689357547      7.679657166835596
C       6.569074474322527      4.392624133384260      6.532275618373672
Si      7.663920220042947      5.468566180798388      7.679657166835596
C       8.758765965763368      6.582315624825102      6.532275618373672
Si      9.853611711483790      7.658257672239230      7.679657166835596
C      10.948457457204210      8.772007116265945      6.532275618373672
Si     12.043303202924632      9.847949163680074      7.679657166835596
C       6.569074474322527      2.202932641943418      8.721967109814512
Si      7.663920220042947      3.278874689357547      9.869348658276438
C       8.758765965763368      4.392624133384260      8.721967109814512
Si      9.853611711483790      5.468566180798388      9.869348658276438
C      10.948457457204210      6.582315624825102      8.721967109814512
Si     12.043303202924632      7.658257672239230      9.869348658276438
C      13.138148948645053      8.772007116265945      8.721967109814512
Si     14.232994694365475      9.847949163680074      9.869348658276438
C       0.000000000000000      4.392624133384260      4.342584126932829
Si      1.094845745720421      5.468566180798388      5.489965675394753
C       2.189691491440842      6.582315624825102      4.342584126932829
Si      3.284537237161263      7.658257672239230      5.489965675394753
C       4.379382982881684      8.772007116265945      4.342584126932829
Si      5.474228728602105      9.847949163680074      5.489965675394753
C       6.569074474322527     10.961698607706786      4.342584126932829
Si      7.663920220042947     12.037640655120915      5.489965675394753
C       2.189691491440842      4.392624133384260      6.532275618373672
Si      3.284537237161263      5.468566180798388      7.679657166835596
C       4.379382982881684      6.582315624825102      6.532275618373672
Si      5.474228728602105      7.658257672239230      7.679657166835596
C       6.569074474322527      8.772007116265945      6.532275618373672
Si      7.663920220042947      9.847949163680074      7.679657166835596
C       8.758765965763368     10.961698607706786      6.532275618373672
Si      9.853611711483790     12.037640655120915      7.679657166835596
C       4.379382982881684      4.392624133384260      8.721967109814512
Si      5.474228728602105      5.468566180798388      9.869348658276438
C       6.569074474322527      6.582315624825102      8.721967109814512
Si      7.663920220042947      7.658257672239230      9.869348658276438
C       8.758765965763368      8.772007116265945      8.721967109814512
Si      9.853611711483790      9.847949163680074      9.869348658276438
C      10.948457457204210     10.961698607706786      8.721967109814512
Si     12.043303202924632     12.037640655120915      9.869348658276438
C       6.569074474322527      4.392624133384260     10.911658601255354
Si      7.663920220042947      5.468566180798388     12.059040149717280
C       8.758765965763368      6.582315624825102     10.911658601255354
Si      9.853611711483790      7.658257672239230     12.059040149717280
C      10.948457457204210      8.772007116265945     10.911658601255354
Si     12.043303202924632      9.847949163680074     12.059040149717280
C      13.138148948645053     10.961698607706786     10.911658601255354
Si     14.232994694365475     12.037640655120915     12.059040149717280
C       0.000000000000000      6.582315624825102      6.532275618373672
Si      1.094845745720421      7.658257672239230      7.679657166835596
C       2.189691491440842      8.772007116265945      6.532275618373672
Si      3.284537237161263      9.847949163680074      7.679657166835596
C       4.379382982881684     10.961698607706786      6.532275618373672
Si      5.474228728602105     12.037640655120915      7.679657166835596
C       6.569074474322527     13.151390099147630      6.532275618373672
Si      7.663920220042947     14.227332146561759      7.679657166835596
C       2.189691491440842      6.582315624825102      8.721967109814512
Si      3.284537237161263      7.658257672239230      9.869348658276438
C       4.379382982881684      8.772007116265945      8.721967109814512
Si      5.474228728602105      9.847949163680074      9.869348658276438
C       6.569074474322527     10.961698607706786      8.721967109814512
Si      7.663920220042947     12.037640655120915      9.869348658276438
C       8.758765965763368     13.151390099147630      8.721967109814512
Si      9.853611711483790     14.227332146561759      9.869348658276438
C       4.379382982881684      6.582315624825102     10.911658601255354
Si      5.474228728602105      7.658257672239230     12.059040149717280
C       6.569074474322527      8.772007116265945     10.911658601255354
Si      7.663920220042947      9.847949163680074     12.059040149717280
C       8.758765965763368     10.961698607706786     10.911658601255354
Si      9.853611711483790     12.037640655120915     12.059040149717280
C      10.948457457204210     13.151390099147630     10.911658601255354
Si     12.043303202924632     14.227332146561759     12.059040149717280
C       6.569074474322527      6.582315624825102     13.101350092696197
Si      7.663920220042947      7.658257672239230     14.248731641158123
C       8.758765965763368      8.772007116265945     13.101350092696197
Si      9.853611711483790      9.847949163680074     14.248731641158123
C      10.948457457204210     10.961698607706786     13.101350092696197
Si     12.043303202924632     12.037640655120915     14.248731641158123
C      13.138148948645053     13.151390099147630     13.101350092696197
Si     14.232994694365475     14.227332146561759     14.248731641158123
128

C       0.000000000000000      0.000000000000000     -0.000000000000000
Si      1.094845745720421      1.094845745720421      1.094845745720421
C       2.189691491440842      2.189691491440842     -0.000000000000000
Si      3.284537237161263      3.284537237161263      1.094845745720421
C       4.379382982881684      4.379382982881684     -0.000000000000000
Si      5.474228728602105      5.474228728602105      1.094845745720421
C       6.569074474322527      6.569074474322527     -0.000000000000000
Si      7.663920220042947      7.663920220042947      1.094845745720421
C       2.189691491440842      0.000000000000000      2.189691491440842
Si      3.284537237161263      1.094845745720421      3.284537237161263
C       4.379382982881684      2.189691491440842      2.189691491440842
Si      5.474228728602105      3.284537237161263      3.284537237161263
C       6.569074474322527      4.379382982881684      2.189691491440842
Si      7.663920220042947      5.474228728602105      3.284537237161263
C       8.758765965763368      6.569074474322527      2.189691491440842
Si      9.853611711483790      7.663920220042947      3.284537237161263
C       4.379382982881684      0.000000000000000      4.379382982881684
Si      5.474228728602105      1.094845745720421      5.474228728602105
C       6.569074474322527      2.189691491440842      4.379382982881684
Si      7.663920220042947      3.284537237161263      5.474228728602105
C       8.758765965763368      4.379382982881684      4.379382982881684
Si      9.853611711483790      5.474228728602105      5.474228728602105
C      10.948457457204210      6.569074474322527      4.379382982881684
Si     12.043303202924632      7.663920220042947      5.474228728602105
C       6.569074474322527      0.000000000000000      6.569074474322527
Si      7.663920220042947      1.094845745720421      7.663920220042947
C       8.758765965763368      2.189691491440842      6.569074474322527
Si      9.853611711483790      3.284537237161263      7.663920220042947
C      10.948457457204210      4.379382982881684      6.569074474322527
Si     12.043303202924632      5.474228728602105      7.663920220042947
C      13.138148948645053      6.569074474322527      6.569074474322527
Si     14.232994694365475      7.663920220042947      7.663920220042947
C       0.000000000000000      2.189691491440842      2.189691491440842
Si      1.094845745720421      3.284537237161263      3.284537237161263
C       2.189691491440842      4.379382982881684      2.189691491440842
Si      3.284537237161263      5.474228728602105      3.284537237161263
C       4.379382982881684      6.569074474322527      2.189691491440842
Si      5.474228728602105      7.663920220042947      3.284537237161263
C       6.569074474322527      8.758765965763368      2.189691491440842
Si      7.663920220042947      9.853611711483790      3.284537237161263
C       2.189691491440842      2.189691491440842      4.379382982881684
Si      3.284537237161263      3.284537237161263      5.474228728602105
C       4.379382982881684      4.379382982881684      4.379382982881684
Si      5.474228728602105      5.474228728602105      5.474228728602105
C       6.569074474322527      6.569074474322527      4.379382982881684
Si      7.663920220042947      7.663920220042947      5.474228728602105
C       8.758765965763368      8.758765965763368      4.379382982881684
Si      9.853611711483790      9.853611711483790      5.474228728602105
C       4.379382982881684      2.189691491440842      6.569074474322527
Si      5.474228728602105      3.284537237161263      7.663920220042947
C       6.569074474322527      4.379382982881684      6.569074474322527
Si      7.663920220042947      5.474228728602105      7.663920220042947
C       8.758765965763368      6.569074474322527      6.569074474322527
Si      9.853611711483790      7.663920220042947      7.663920220042947
C      10.948457457204210      8.758765965763368      6.569074474322527
Si     12.043303202924632      9.853611711483790      7.663920220042947
C       6.569074474322527      2.189691491440842      8.758765965763368
Si      7.663920220042947      3.284537237161263      9.853611711483790
C       8.758765965763368      4.379382982881684      8.758765965763368
Si      9.853611711483790      5.474228728602105      9.853611711483790
C      10.948457457204210      6.569074474322527      8.758765965763368
Si     12.043303202924632      7.663920220042947      9.853611711483790
C      13.138148948645053      8.758765965763368      8.758765965763368
Si     14.232994694365475      9.853611711483790      9.853611711483790
C       0.000000000000000      4.379382982881684      4.379382982881684
Si      1.094845745720421      5.474228728602105      5.474228728602105
C       2.189691491440842      6.569074474322527      4.379382982881684
Si      3.284537237161263      7.663920220042947      5.474228728602105
C       4.379382982881684      8.758765965763368      4.379382982881684
Si      5.474228728602105      9.853611711483790      5.474228728602105
C       6.569074474322527     10.948457457204210      4.379382982881684
Si      7.663920220042947     12.043303202924632      5.474228728602105
C       2.189691491440842      4.379382982881684      6.569074474322527
Si      3.284537237161263      5.474228728602105      7.663920220042947
C       4.379382982881684      6.569074474322527      6.569074474322527
Si      5.474228728602105      7.663920220042947      7.663920220042947
C       6.569074474322527      8.758765965763368      6.569074474322527
Si      7.663920220042947      9.853611711483790      7.663920220042947
C       8.758765965763368     10.948457457204210      6.569074474322527
Si      9.853611711483790     12.043303202924632      7.663920220042947
C       4.379382982881684      4.379382982881684      8.758765965763368
Si      5.474228728602105      5.474228728602105      9.853611711483790
C       6.569074474322527      6.569074474322527      8.758765965763368
Si      7.663920220042947      7.663920220042947      9.853611711483790
C       8.758765965763368      8.758765965763368      8.758765965763368
Si      9.853611711483790      9.853611711483790      9.853611711483790
C      10.948457457204210     10.948457457204210      8.758765965763368
Si     12.043303202924632     12.043303202924632      9.853611711483790
C       6.569074474322527      4.379382982881684     10.948457457204210
Si      7.663920220042947      5.474228728602105     12.043303202924632
C       8.758765965763368      6.569074474322527     10.948457457204210
Si      9.853611711483790      7.663920220042947     12.043303202924632
C      10.948457457204210      8.758765965763368     10.948457457204210
Si     12.043303202924632      9.853611711483790     12.043303202924632
C      13.138148948645053     10.948457457204210     10.948457457204210
Si     14.232994694365475     12.043303202924632     12.043303202924632
C       0.000000000000000      6.569074474322527      6.569074474322527
Si      1.094845745720421      7.663920220042947      7.663920220042947
C       2.189691491440842      8.758765965763368      6.569074474322527
Si      3.284537237161263      9.853611711483790      7.663920220042947
C       4.379382982881684     10.948457457204210      6.569074474322527
Si      5.474228728602105     12.043303202924632      7.663920220042947
C       6.569074474322527     13.138148948645053      6.569074474322527
Si      7.663920220042947     14.232994694365475      7.663920220042947
C       2.189691491440842      6.569074474322527      8.758765965763368
Si      3.284537237161263      7.663920220042947      9.853611711483790
C       4.379382982881684      8.758765965763368      8.758765965763368
Si      5.474228728602105      9.853611711483790      9.853611711483790
C       6.569074474322527     10.948457457204210      8.758765965763368
Si      7.663920220042947     12.043303202924632      9.853611711483790
C       8.758765965763368     13.138148948645053      8.758765965763368
Si      9.853611711483790     14.232994694365475      9.853611711483790
C       4.379382982881684      6.569074474322527     10.948457457204210
Si      5.474228728602105      7.663920220042947     12.043303202924632
C       6.569074474322527      8.758765965763368     10.948457457204210
Si      7.663920220042947      9.853611711483790     12.043303202924632
C       8.758765965763368     10.948457457204210     10.948457457204210
Si      9.853611711483790     12.043303202924632     12.043303202924632
C      10.948457457204210     13.138148948645053     10.948457457204210
Si     12.043303202924632     14.232994694365475     12.043303202924632
C       6.569074474322527      6.569074474322527     13.138148948645053
Si      7.663920220042947      7.663920220042947     14.232994694365475
C       8.758765965763368      8.758765965763368     13.138148948645053
Si      9.853611711483790      9.853611711483790     14.232994694365475
C      10.948457457204210     10.948457457204210     13.138148948645053
Si     12.043303202924632     12.043303202924632     14.232994694365475
C      13.138148948645053     13.138148948645053     13.138148948645053
Si     14.232994694365475     14.232994694365475     14.232994694365475
128

C       0.000000000000000     -0.013241150502576      0.036798855948855
Si      1.094845745720421      1.100508293524138      1.079108798927773
C       2.189691491440842      2.176450340938266      0.036798855948855
Si      3.284537237161263      3.290199784964980      1.079108798927773
C       4.379382982881684      4.366141832379109      0.036798855948855
Si      5.474228728602105      5.479891276405822      1.079108798927773
C       6.569074474322527      6.555833323819951      0.036798855948855
Si      7.663920220042947      7.669582767846665      1.079108798927773
C       2.189691491440842     -0.013241150502576      2.226490347389697
Si      3.284537237161263      1.100508293524138      3.268800290368616
C       4.379382982881684      2.176450340938266      2.226490347389697
Si      5.474228728602105      3.290199784964980      3.268800290368616
C       6.569074474322527      4.366141832379109      2.226490347389697
Si      7.663920220042947      5.479891276405822      3.268800290368616
C       8.758765965763368      6.555833323819951      2.226490347389697
Si      9.853611711483790      7.669582767846665      3.268800290368616
C       4.379382982881684     -0.013241150502576      4.416181838830539
Si      5.474228728602105      1.100508293524138      5.458491781809457
C       6.569074474322527      2.176450340938266      4.416181838830539
Si      7.663920220042947      3.290199784964980      5.458491781809457
C       8.758765965763368      4.366141832379109      4.416181838830539
Si      9.853611711483790      5.479891276405822      5.458491781809457
C      10.948457457204210      6.555833323819951      4.416181838830539
Si     12.043303202924632      7.669582767846665      5.458491781809457
C       6.569074474322527     -0.013241150502576      6.605873330271382
Si      7.663920220042947      1.100508293524138      7.648183273250299
C       8.758765965763368      2.176450340938266      6.605873330271382
Si      9.853611711483790      3.290199784964980      7.648183273250299
C      10.948457457204210      4.366141832379109      6.605873330271382
Si     12.043303202924632      5.479891276405822      7.648183273250299
C      13.138148948645053      6.555833323819951      6.605873330271382
Si     14.232994694365475      7.669582767846665      7.648183273250299
C       0.000000000000000      2.176450340938266      2.226490347389697
Si      1.094845745720421      3.290199784964980      3.268800290368616
C       2.189691491440842      4.366141832379109      2.226490347389697
Si      3.284537237161263      5.479891276405822      3.268800290368616
C       4.379382982881684      6.555833323819951      2.226490347389697
Si      5.474228728602105      7.669582767846665      3.268800290368616
C       6.569074474322527      8.745524815260792      2.226490347389697
Si      7.663920220042947      9.859274259287506      3.268800290368616
C       2.189691491440842      2.176450340938266      4.416181838830539
Si      3.284537237161263      3.290199784964980      5.458491781809457
C       4.379382982881684      4.366141832379109      4.416181838830539
Si      5.474228728602105      5.479891276405822      5.458491781809457
C       6.569074474322527      6.555833323819951      4.416181838830539
Si      7.663920220042947      7.669582767846665      5.458491781809457
C       8.758765965763368      8.745524815260792      4.416181838830539
Si      9.853611711483790      9.859274259287506      5.458491781809457
C       4.379382982881684      2.176450340938266      6.605873330271382
Si      5.474228728602105      3.290199784964980      7.648183273250299
C       6.569074474322527      4.366141832379109      6.605873330271382
Si      7.663920220042947      5.479891276405822      7.648183273250299
C       8.758765965763368      6.555833323819951      6.605873330271382
Si      9.853611711483790      7.669582767846665      7.648183273250299
C      10.948457457204210      8.745524815260792      6.605873330271382
Si     12.043303202924632      9.859274259287506      7.648183273250299
C       6.569074474322527      2.176450340938266      8.795564821712224
Si      7.663920220042947      3.290199784964980      9.837874764691142
C       8.758765965763368      4.366141832379109      8.795564821712224
Si      9.853611711483790      5.479891276405822      9.837874764691142
C      10.948457457204210      6.555833323819951      8.795564821712224
Si     12.043303202924632      7.669582767846665      9.837874764691142
C      13.138148948645053      8.745524815260792      8.795564821712224
Si     14.232994694365475      9.859274259287506      9.837874764691142
C       0.000000000000000      4.366141832379109      4.416181838830539
Si      1.094845745720421      5.479891276405822      5.458491781809457
C       2.189691491440842      6.555833323819951      4.416181838830539
Si      3.284537237161263      7.669582767846665      5.458491781809457
C       4.379382982881684      8.745524815260792      4.416181838830539
Si      5.474228728602105      9.859274259287506      5.458491781809457
C       6.569074474322527     10.935216306701633      4.416181838830539
Si      7.663920220042947     12.048965750728348      5.458491781809457
C       2.189691491440842      4.366141832379109      6.605873330271382
Si      3.284537237161263      5.479891276405822      7.648183273250299
C       4.379382982881684      6.555833323819951      6.605873330271382
Si      5.474228728602105      7.669582767846665      7.648183273250299
C       6.569074474322527      8.745524815260792      6.605873330271382
Si      7.663920220042947      9.859274259287506      7.648183273250299
C       8.758765965763368     10.935216306701633      6.605873330271382
Si      9.853611711483790     12.048965750728348      7.648183273250299
C       4.379382982881684      4.366141832379109      8.795564821712224
Si      5.474228728602105      5.479891276405822      9.837874764691142
C       6.569074474322527      6.555833323819951      8.795564821712224
Si      7.663920220042947      7.669582767846665      9.837874764691142
C       8.758765965763368      8.745524815260792      8.795564821712224
Si      9.853611711483790      9.859274259287506      9.837874764691142
C      10.948457457204210     10.935216306701633      8.795564821712224
Si     12.043303202924632     12.048965750728348      9.837874764691142
C       6.569074474322527      4.366141832379109     10.985256313153066
Si      7.663920220042947      5.479891276405822     12.027566256131983
C       8.758765965763368      6.555833323819951     10.985256313153066
Si      9.853611711483790      7.669582767846665     12.027566256131983
C      10.948457457204210      8.745524815260792     10.985256313153066
Si     12.043303202924632      9.859274259287506     12.027566256131983
C      13.138148948645053     10.935216306701633     10.985256313153066
Si     14.232994694365475     12.048965750728348     12.027566256131983
C       0.000000000000000      6.555833323819951      6.605873330271382
Si      1.094845745720421      7.669582767846665      7.648183273250299
C       2.189691491440842      8.745524815260792      6.605873330271382
Si      3.284537237161263      9.859274259287506      7.648183273250299
C       4.379382982881684     10.935216306701633      6.605873330271382
Si      5.474228728602105     12.048965750728348      7.648183273250299
C       6.569074474322527     13.124907798142477      6.605873330271382
Si      7.663920220042947     14.238657242169191      7.648183273250299
C       2.189691491440842      6.555833323819951      8.795564821712224
Si      3.284537237161263      7.669582767846665      9.837874764691142
C       4.379382982881684      8.745524815260792      8.795564821712224
Si      5.474228728602105      9.859274259287506      9.837874764691142
C       6.569074474322527     10.935216306701633      8.795564821712224
Si      7.663920220042947     12.048965750728348      9.837874764691142
C       8.758765965763368     13.124907798142477      8.795564821712224
Si      9.853611711483790     14.238657242169191      9.837874764691142
C       4.379382982881684      6.555833323819951     10.985256313153066
Si      5.474228728602105      7.669582767846665     12.027566256131983
C       6.569074474322527      8.745524815260792     10.985256313153066
Si      7.663920220042947      9.859274259287506     12.027566256131983
C       8.758765965763368     10.935216306701633     10.985256313153066
Si      9.853611711483790     12.048965750728348     12.027566256131983
C      10.948457457204210     13.124907798142477     10.985256313153066
Si     12.043303202924632     14.238657242169191     12.027566256131983
C       6.569074474322527      6.555833323819951     13.174947804593909
Si      7.663920220042947      7.669582767846665     14.217257747572827
C       8.758765965763368      8.745524815260792     13.174947804593909
Si      9.853611711483790      9.859274259287506     14.217257747572827
C      10.948457457204210     10.935216306701633     13.174947804593909
Si     12.043303202924632     12.048965750728348     14.217257747572827
C      13.138148948645053     13.124907798142477     13.174947804593909
Si     14.232994694365475     14.238657242169191     14.217257747572827
128

C       0.000000000000000     -0.026156259934919      0.072691601935848
Si      1.094845745720421      1.106031410608008      1.063759347993092
C       2.189691491440842      2.163535231505923      0.072691601935848
Si      3.284537237161263      3.295722902048851      1.063759347993092
C       4.379382982881684      4.353226722946765      0.072691601935848
Si      5.474228728602105      5.485414393489692      1.063759347993092
C       6.569074474322527      6.542918214387607      0.072691601935848
Si      7.663920220042947      7.675105884930534      1.063759347993092
C       2.189691491440842     -0.026156259934919      2.262383093376690
Si      3.284537237161263      1.106031410608008      3.253450839433934
C       4.379382982881684      2.163535231505923      2.262383093376690
Si      5.474228728602105      3.295722902048851      3.253450839433934
C       6.569074474322527      4.353226722946765      2.262383093376690
Si      7.663920220042947      5.485414393489692      3.253450839433934
C       8.758765965763368      6.542918214387607      2.262383093376690
Si      9.853611711483790      7.675105884930534      3.253450839433934
C       4.379382982881684     -0.026156259934919      4.452074584817533
Si      5.474228728602105      1.106031410608008      5.443142330874776
C       6.569074474322527      2.163535231505923      4.452074584817533
Si      7.663920220042947      3.295722902048851      5.443142330874776
C       8.758765965763368      4.353226722946765      4.452074584817533
Si      9.853611711483790      5.485414393489692      5.443142330874776
C      10.948457457204210      6.542918214387607      4.452074584817533
Si     12.043303202924632      7.675105884930534      5.443142330874776
C       6.569074474322527     -0.026156259934919      6.641766076258375
Si      7.663920220042947      1.106031410608008      7.632833822315619
C       8.758765965763368      2.163535231505923      6.641766076258375
Si      9.853611711483790      3.295722902048851      7.632833822315619
C      10.948457457204210      4.353226722946765      6.641766076258375
Si     12.043303202924632      5.485414393489692      7.632833822315619
C      13.138148948645053      6.542918214387607      6.641766076258375
Si     14.232994694365475      7.675105884930534      7.632833822315619
C       0.000000000000000      2.163535231505923      2.262383093376690
Si      1.094845745720421      3.295722902048851      3.253450839433934
C       2.189691491440842      4.353226722946765      2.262383093376690
Si      3.284537237161263      5.485414393489692      3.253450839433934
C       4.379382982881684      6.542918214387607      2.262383093376690
Si      5.474228728602105      7.675105884930534      3.253450839433934
C       6.569074474322527      8.732609705828450      2.262383093376690
Si      7.663920220042947      9.864797376371378      3.253450839433934
C       2.189691491440842      2.163535231505923      4.452074584817533
Si      3.284537237161263      3.295722902048851      5.443142330874776
C       4.379382982881684      4.353226722946765      4.452074584817533
Si      5.474228728602105      5.485414393489692      5.443142330874776
C       6.569074474322527      6.542918214387607      4.452074584817533
Si      7.663920220042947      7.675105884930534      5.443142330874776
C       8.758765965763368      8.732609705828450      4.452074584817533
Si      9.853611711483790      9.864797376371378      5.443142330874776
C       4.379382982881684      2.163535231505923      6.641766076258375
Si      5.474228728602105      3.295722902048851      7.632833822315619
C       6.569074474322527      4.353226722946765      6.641766076258375
Si      7.663920220042947      5.485414393489692      7.632833822315619
C       8.758765965763368      6.542918214387607      6.641766076258375
Si      9.853611711483790      7.675105884930534      7.632833822315619
C      10.948457457204210      8.732609705828450      6.641766076258375
Si     12.043303202924632      9.864797376371378      7.632833822315619
C       6.569074474322527      2.163535231505923      8.831457567699216
Si      7.663920220042947      3.295722902048851      9.822525313756461
C       8.758765965763368      4.353226722946765      8.831457567699216
Si      9.853611711483790      5.485414393489692      9.822525313756461
C      10.948457457204210      6.542918214387607      8.831457567699216
Si     12.043303202924632      7.675105884930534      9.822525313756461
C      13.138148948645053      8.732609705828450      8.831457567699216
Si     14.232994694365475      9.864797376371378      9.822525313756461
C       0.000000000000000      4.353226722946765      4.452074584817533
Si      1.094845745720421      5.485414393489692      5.443142330874776
C       2.189691491440842      6.542918214387607      4.452074584817533
Si      3.284537237161263      7.675105884930534      5.443142330874776
C       4.379382982881684      8.732609705828450      4.452074584817533
Si      5.474228728602105      9.864797376371378      5.443142330874776
C       6.569074474322527     10.922301197269292      4.452074584817533
Si      7.663920220042947     12.054488867812220      5.443142330874776
C       2.189691491440842      4.353226722946765      6.641766076258375
Si      3.284537237161263      5.485414393489692      7.632833822315619
C       4.379382982881684      6.542918214387607      6.641766076258375
Si      5.474228728602105      7.675105884930534      7.632833822315619
C       6.569074474322527      8.732609705828450      6.641766076258375
Si      7.663920220042947      9.864797376371378      7.632833822315619
C       8.758765965763368     10.922301197269292      6.641766076258375
Si      9.853611711483790     12.054488867812220      7.632833822315619
C       4.379382982881684      4.353226722946765      8.831457567699216
Si      5.474228728602105      5.485414393489692      9.822525313756461
C       6.569074474322527      6.542918214387607      8.831457567699216
Si      7.663920220042947      7.675105884930534      9.822525313756461
C       8.758765965763368      8.732609705828450      8.831457567699216
Si      9.853611711483790      9.864797376371378      9.822525313756461
C      10.948457457204210     10.922301197269292      8.831457567699216
Si     12.043303202924632     12.054488867812220      9.822525313756461
C       6.569074474322527      4.353226722946765     11.021149059140058
Si      7.663920220042947      5.485414393489692     12.012216805197303
C       8.758765965763368      6.542918214387607     11.021149059140058
Si      9.853611711483790      7.675105884930534     12.012216805197303
C      10.948457457204210      8.732609705828450     11.021149059140058
Si     12.043303202924632      9.864797376371378     12.012216805197303
C      13.138148948645053     10.922301197269292     11.021149059140058
Si     14.232994694365475     12.054488867812220     12.012216805197303
C       0.000000000000000      6.542918214387607      6.641766076258375
Si      1.094845745720421      7.675105884930534      7.632833822315619
C       2.189691491440842      8.732609705828450      6.641766076258375
Si      3.284537237161263      9.864797376371378      7.632833822315619
C       4.379382982881684     10.922301197269292      6.641766076258375
Si      5.474228728602105     12.054488867812220      7.632833822315619
C       6.569074474322527     13.111992688710135      6.641766076258375
Si      7.663920220042947     14.244180359253063      7.632833822315619
C       2.189691491440842      6.542918214387607      8.831457567699216
Si      3.284537237161263      7.675105884930534      9.822525313756461
C       4.379382982881684      8.732609705828450      8.831457567699216
Si      5.474228728602105      9.864797376371378      9.822525313756461
C       6.569074474322527     10.922301197269292      8.831457567699216
Si      7.663920220042947     12.054488867812220      9.822525313756461
C       8.758765965763368     13.111992688710135      8.831457567699216
Si      9.853611711483790     14.244180359253063      9.822525313756461
C       4.379382982881684      6.542918214387607     11.021149059140058
Si      5.474228728602105      7.675105884930534     12.012216805197303
C       6.569074474322527      8.732609705828450     11.021149059140058
Si      7.663920220042947      9.864797376371378     12.012216805197303
C       8.758765965763368     10.922301197269292     11.021149059140058
Si      9.853611711483790     12.054488867812220     12.012216805197303
C      10.948457457204210     13.111992688710135     11.021149059140058
Si     12.043303202924632     14.244180359253063     12.012216805197303
C       6.569074474322527      6.542918214387607     13.210840550580901
Si      7.663920220042947      7.675105884930534     14.201908296638146
C       8.758765965763368      8.732609705828450     13.210840550580901
Si      9.853611711483790      9.864797376371378     14.201908296638146
C      10.948457457204210     10.922301197269292     13.210840550580901
Si     12.043303202924632     12.054488867812220     14.201908296638146
C      13.138148948645053     13.111992688710135     13.210840550580901
Si     14.232994694365475     14.244180359253063     14.201908296638146
128

C       0.000000000000000     -0.038427315440015      0.106794439433586
Si      1.094845745720421      1.111279099499253      1.049175347340297
C       2.189691491440842      2.151264176000827      0.106794439433586
Si      3.284537237161263      3.300970590940095      1.049175347340297
C       4.379382982881684      4.340955667441669      0.106794439433586
Si      5.474228728602105      5.490662082380937      1.049175347340297
C       6.569074474322527      6.530647158882512      0.106794439433586
Si      7.663920220042947      7.680353573821780      1.049175347340297
C       2.189691491440842     -0.038427315440015      2.296485930874428
Si      3.284537237161263      1.111279099499253      3.238866838781139
C       4.379382982881684      2.151264176000827      2.296485930874428
Si      5.474228728602105      3.300970590940095      3.238866838781139
C       6.569074474322527      4.340955667441669      2.296485930874428
Si      7.663920220042947      5.490662082380937      3.238866838781139
C       8.758765965763368      6.530647158882512      2.296485930874428
Si      9.853611711483790      7.680353573821780      3.238866838781139
C       4.379382982881684     -0.038427315440015      4.486177422315270
Si      5.474228728602105      1.111279099499253      5.428558330221981
C       6.569074474322527      2.151264176000827      4.486177422315270
Si      7.663920220042947      3.300970590940095      5.428558330221981
C       8.758765965763368      4.340955667441669      4.486177422315270
Si      9.853611711483790      5.490662082380937      5.428558330221981
C      10.948457457204210      6.530647158882512      4.486177422315270
Si     12.043303202924632      7.680353573821780      5.428558330221981
C       6.569074474322527     -0.038427315440015      6.675868913756112
Si      7.663920220042947      1.111279099499253      7.618249821662824
C       8.758765965763368      2.151264176000827      6.675868913756112
Si      9.853611711483790      3.300970590940095      7.618249821662824
C      10.948457457204210      4.340955667441669      6.675868913756112
Si     12.043303202924632      5.490662082380937      7.618249821662824
C      13.138148948645053      6.530647158882512      6.675868913756112
Si     14.232994694365475      7.680353573821780      7.618249821662824
C       0.000000000000000      2.151264176000827      2.296485930874428
Si      1.094845745720421      3.300970590940095      3.238866838781139
C       2.189691491440842      4.340955667441669      2.296485930874428
Si      3.284537237161263      5.490662082380937      3.238866838781139
C       4.379382982881684      6.530647158882512      2.296485930874428
Si      5.474228728602105      7.680353573821780      3.238866838781139
C       6.569074474322527      8.720338650323352      2.296485930874428
Si      7.663920220042947      9.870045065262621      3.238866838781139
C       2.189691491440842      2.151264176000827      4.486177422315270
Si      3.284537237161263      3.300970590940095      5.428558330221981
C       4.379382982881684      4.340955667441669      4.486177422315270
Si      5.474228728602105      5.490662082380937      5.428558330221981
C       6.569074474322527      6.530647158882512      4.486177422315270
Si      7.663920220042947      7.680353573821780      5.428558330221981
C       8.758765965763368      8.720338650323352      4.486177422315270
Si      9.853611711483790      9.870045065262621      5.428558330221981
C       4.379382982881684      2.151264176000827      6.675868913756112
Si      5.474228728602105      3.300970590940095      7.618249821662824
C       6.569074474322527      4.340955667441669      6.675868913756112
Si      7.663920220042947      5.490662082380937      7.618249821662824
C       8.758765965763368      6.530647158882512      6.675868913756112
Si      9.853611711483790      7.680353573821780      7.618249821662824
C      10.948457457204210      8.720338650323352      6.675868913756112
Si     12.043303202924632      9.870045065262621      7.618249821662824
C       6.569074474322527      2.151264176000827      8.865560405196954
Si      7.663920220042947      3.300970590940095      9.807941313103667
C       8.758765965763368      4.340955667441669      8.865560405196954
Si      9.853611711483790      5.490662082380937      9.807941313103667
C      10.948457457204210      6.530647158882512      8.865560405196954
Si     12.043303202924632      7.680353573821780      9.807941313103667
C      13.138148948645053      8.720338650323352      8.865560405196954
Si     14.232994694365475      9.870045065262621      9.807941313103667
C       0.000000000000000      4.340955667441669      4.486177422315270
Si      1.094845745720421      5.490662082380937      5.428558330221981
C       2.189691491440842      6.530647158882512      4.486177422315270
Si      3.284537237161263      7.680353573821780      5.428558330221981
C       4.379382982881684      8.720338650323352      4.486177422315270
Si      5.474228728602105      9.870045065262621      5.428558330221981
C       6.569074474322527     10.910030141764194      4.486177422315270
Si      7.663920220042947     12.059736556703463      5.428558330221981
C       2.189691491440842      4.340955667441669      6.675868913756112
Si      3.284537237161263      5.490662082380937      7.618249821662824
C       4.379382982881684      6.530647158882512      6.675868913756112
Si      5.474228728602105      7.680353573821780      7.618249821662824
C       6.569074474322527      8.720338650323352      6.675868913756112
Si      7.663920220042947      9.870045065262621      7.618249821662824
C       8.758765965763368     10.910030141764194      6.675868913756112
Si      9.853611711483790     12.059736556703463      7.618249821662824
C       4.379382982881684      4.340955667441669      8.865560405196954
Si      5.474228728602105      5.490662082380937      9.807941313103667
C       6.569074474322527      6.530647158882512      8.865560405196954
Si      7.663920220042947      7.680353573821780      9.807941313103667
C       8.758765965763368      8.720338650323352      8.865560405196954
Si      9.853611711483790      9.870045065262621      9.807941313103667
C      10.948457457204210     10.910030141764194      8.865560405196954
Si     12.043303202924632     12.059736556703463      9.807941313103667
C       6.569074474322527      4.340955667441669     11.055251896637795
Si      7.663920220042947      5.490662082380937     11.997632804544509
C       8.758765965763368      6.530647158882512     11.055251896637795
Si      9.853611711483790      7.680353573821780     11.997632804544509
C      10.948457457204210      8.720338650323352     11.055251896637795
Si     12.043303202924632      9.870045065262621     11.997632804544509
C      13.138148948645053     10.910030141764194     11.055251896637795
Si     14.232994694365475     12.059736556703463     11.997632804544509
C       0.000000000000000      6.530647158882512      6.675868913756112
Si      1.094845745720421      7.680353573821780      7.618249821662824
C       2.189691491440842      8.720338650323352      6.675868913756112
Si      3.284537237161263      9.870045065262621      7.618249821662824
C       4.379382982881684     10.910030141764194      6.675868913756112
Si      5.474228728602105     12.059736556703463      7.618249821662824
C       6.569074474322527     13.099721633205037      6.675868913756112
Si      7.663920220042947     14.249428048144306      7.618249821662824
C       2.189691491440842      6.530647158882512      8.865560405196954
Si      3.284537237161263      7.680353573821780      9.807941313103667
C       4.379382982881684      8.720338650323352      8.865560405196954
Si      5.474228728602105      9.870045065262621      9.807941313103667
C       6.569074474322527     10.910030141764194      8.865560405196954
Si      7.663920220042947     12.059736556703463      9.807941313103667
C       8.758765965763368     13.099721633205037      8.865560405196954
Si      9.853611711483790     14.249428048144306      9.807941313103667
C       4.379382982881684      6.530647158882512     11.055251896637795
Si      5.474228728602105      7.680353573821780     11.997632804544509
C       6.569074474322527      8.720338650323352     11.055251896637795
Si      7.663920220042947      9.870045065262621     11.997632804544509
C       8.758765965763368     10.910030141764194     11.055251896637795
Si      9.853611711483790     12.059736556703463     11.997632804544509
C      10.948457457204210     13.099721633205037     11.055251896637795
Si     12.043303202924632     14.249428048144306     11.997632804544509
C       6.569074474322527      6.530647158882512     13.244943388078639
Si      7.663920220042947      7.680353573821780     14.187324295985352
C       8.758765965763368      8.720338650323352     13.244943388078639
Si      9.853611711483790      9.870045065262621     14.187324295985352
C      10.948457457204210     10.910030141764194     13.244943388078639
Si     12.043303202924632     12.059736556703463     14.187324295985352
C      13.138148948645053     13.099721633205037     13.244943388078639
Si     14.232994694365475     14.249428048144306     14.187324295985352
128

C       0.000000000000000     -0.049752162906030      0.138267643402044
Si      1.094845745720421      1.116122144681289      1.035715903466983
C       2.189691491440842      2.139939328534813      0.138267643402044
Si      3.284537237161263      3.305813636122131      1.035715903466983
C       4.379382982881684      4.329630819975654      0.138267643402044
Si      5.474228728602105      5.495505127562972      1.035715903466983
C       6.569074474322527      6.519322311416497      0.138267643402044
Si      7.663920220042947      7.685196619003815      1.035715903466983
C       2.189691491440842     -0.049752162906030      2.327959134842886
Si      3.284537237161263      1.116122144681289      3.225407394907825
C       4.379382982881684      2.139939328534813      2.327959134842886
Si      5.474228728602105      3.305813636122131      3.225407394907825
C       6.569074474322527      4.329630819975654      2.327959134842886
Si      7.663920220042947      5.495505127562972      3.225407394907825
C       8.758765965763368      6.519322311416497      2.327959134842886
Si      9.853611711483790      7.685196619003815      3.225407394907825
C       4.379382982881684     -0.049752162906030      4.517650626283728
Si      5.474228728602105      1.116122144681289      5.415098886348667
C       6.569074474322527      2.139939328534813      4.517650626283728
Si      7.663920220042947      3.305813636122131      5.415098886348667
C       8.758765965763368      4.329630819975654      4.517650626283728
Si      9.853611711483790      5.495505127562972      5.415098886348667
C      10.948457457204210      6.519322311416497      4.517650626283728
Si     12.043303202924632      7.685196619003815      5.415098886348667
C       6.569074474322527     -0.049752162906030      6.707342117724570
Si      7.663920220042947      1.116122144681289      7.604790377789509
C       8.758765965763368      2.139939328534813      6.707342117724570
Si      9.853611711483790      3.305813636122131      7.604790377789509
C      10.948457457204210      4.329630819975654      6.707342117724570
Si     12.043303202924632      5.495505127562972      7.604790377789509
C      13.138148948645053      6.519322311416497      6.707342117724570
Si     14.232994694365475      7.685196619003815      7.604790377789509
C       0.000000000000000      2.139939328534813      2.327959134842886
Si      1.094845745720421      3.305813636122131      3.225407394907825
C       2.189691491440842      4.329630819975654      2.327959134842886
Si      3.284537237161263      5.495505127562972      3.225407394907825
C       4.379382982881684      6.519322311416497      2.327959134842886
Si      5.474228728602105      7.685196619003815      3.225407394907825
C       6.569074474322527      8.709013802857339      2.327959134842886
Si      7.663920220042947      9.874888110444658      3.225407394907825
C       2.189691491440842      2.139939328534813      4.517650626283728
Si      3.284537237161263      3.305813636122131      5.415098886348667
C       4.379382982881684      4.329630819975654      4.517650626283728
Si      5.474228728602105      5.495505127562972      5.415098886348667
C       6.569074474322527      6.519322311416497      4.517650626283728
Si      7.663920220042947      7.685196619003815      5.415098886348667
C       8.758765965763368      8.709013802857339      4.517650626283728
Si      9.853611711483790      9.874888110444658      5.415098886348667
C       4.379382982881684      2.139939328534813      6.707342117724570
Si      5.474228728602105      3.305813636122131      7.604790377789509
C       6.569074474322527      4.329630819975654      6.707342117724570
Si      7.663920220042947      5.495505127562972      7.604790377789509
C       8.758765965763368      6.519322311416497      6.707342117724570
Si      9.853611711483790      7.685196619003815      7.604790377789509
C      10.948457457204210      8.709013802857339      6.707342117724570
Si     12.043303202924632      9.874888110444658      7.604790377789509
C       6.569074474322527      2.139939328534813      8.897033609165412
Si      7.663920220042947      3.305813636122131      9.794481869230353
C       8.758765965763368      4.329630819975654      8.897033609165412
Si      9.853611711483790      5.495505127562972      9.794481869230353
C      10.948457457204210      6.519322311416497      8.897033609165412
Si     12.043303202924632      7.685196619003815      9.794481869230353
C      13.138148948645053      8.709013802857339      8.897033609165412
Si     14.232994694365475      9.874888110444658      9.794481869230353
C       0.000000000000000      4.329630819975654      4.517650626283728
Si      1.094845745720421      5.495505127562972      5.415098886348667
C       2.189691491440842      6.519322311416497      4.517650626283728
Si      3.284537237161263      7.685196619003815      5.415098886348667
C       4.379382982881684      8.709013802857339      4.517650626283728
Si      5.474228728602105      9.874888110444658      5.415098886348667
C       6.569074474322527     10.898705294298180      4.517650626283728
Si      7.663920220042947     12.064579601885500      5.415098886348667
C       2.189691491440842      4.329630819975654      6.707342117724570
Si      3.284537237161263      5.495505127562972      7.604790377789509
C       4.379382982881684      6.519322311416497      6.707342117724570
Si      5.474228728602105      7.685196619003815      7.604790377789509
C       6.569074474322527      8.709013802857339      6.707342117724570
Si      7.663920220042947      9.874888110444658      7.604790377789509
C       8.758765965763368     10.898705294298180      6.707342117724570
Si      9.853611711483790     12.064579601885500      7.604790377789509
C       4.379382982881684      4.329630819975654      8.897033609165412
Si      5.474228728602105      5.495505127562972      9.794481869230353
C       6.569074474322527      6.519322311416497      8.897033609165412
Si      7.663920220042947      7.685196619003815      9.794481869230353
C       8.758765965763368      8.709013802857339      8.897033609165412
Si      9.853611711483790      9.874888110444658      9.794481869230353
C      10.948457457204210     10.898705294298180      8.897033609165412
Si     12.043303202924632     12.064579601885500      9.794481869230353
C       6.569074474322527      4.329630819975654     11.086725100606253
Si      7.663920220042947      5.495505127562972     11.984173360671194
C       8.758765965763368      6.519322311416497     11.086725100606253
Si      9.853611711483790      7.685196619003815     11.984173360671194
C      10.948457457204210      8.709013802857339     11.086725100606253
Si     12.043303202924632      9.874888110444658     11.984173360671194
C      13.138148948645053     10.898705294298180     11.086725100606253
Si     14.232994694365475     12.064579601885500     11.984173360671194
C       0.000000000000000      6.519322311416497      6.707342117724570
Si      1.094845745720421      7.685196619003815      7.604790377789509
C       2.189691491440842      8.709013802857339      6.707342117724570
Si      3.284537237161263      9.874888110444658      7.604790377789509
C       4.379382982881684     10.898705294298180      6.707342117724570
Si      5.474228728602105     12.064579601885500      7.604790377789509
C       6.569074474322527     13.088396785739024      6.707342117724570
Si      7.663920220042947     14.254271093326343      7.604790377789509
C       2.189691491440842      6.519322311416497      8.897033609165412
Si      3.284537237161263      7.685196619003815      9.794481869230353
C       4.379382982881684      8.709013802857339      8.897033609165412
Si      5.474228728602105      9.874888110444658      9.794481869230353
C       6.569074474322527     10.898705294298180      8.897033609165412
Si      7.663920220042947     12.064579601885500      9.794481869230353
C       8.758765965763368     13.088396785739024      8.897033609165412
Si      9.853611711483790     14.254271093326343      9.794481869230353
C       4.379382982881684      6.519322311416497     11.086725100606253
Si      5.474228728602105      7.685196619003815     11.984173360671194
C       6.569074474322527      8.709013802857339     11.086725100606253
Si      7.663920220042947      9.874888110444658     11.984173360671194
C       8.758765965763368     10.898705294298180     11.086725100606253
Si      9.853611711483790     12.064579601885500     11.984173360671194
C      10.948457457204210     13.088396785739024     11.086725100606253
Si     12.043303202924632     14.254271093326343     11.984173360671194
C       6.569074474322527      6.519322311416497     13.276416592047097
Si      7.663920220042947      7.685196619003815     14.173864852112038
C       8.758765965763368      8.709013802857339     13.276416592047097
Si      9.853611711483790      9.874888110444658     14.173864852112038
C      10.948457457204210     10.898705294298180     13.276416592047097
Si     12.043303202924632     12.064579601885500     14.173864852112038
C      13.138148948645053     13.088396785739024     13.276416592047097
Si     14.232994694365475     14.254271093326343     14.173864852112038
128

C       0.000000000000000     -0.059851947003336      0.166336239105944
Si      1.094845745720421      1.120441294308588      1.023712432550644
C       2.189691491440842      2.129839544437507      0.166336239105944
Si      3.284537237161263      3.310132785749430      1.023712432550644
C       4.379382982881684      4.319531035878349      0.166336239105944
Si      5.474228728602105      5.499824277190272      1.023712432550644
C       6.569074474322527      6.509222527319191      0.166336239105944
Si      7.663920220042947      7.689515768631114      1.023712432550644
C       2.189691491440842     -0.059851947003336      2.356027730546787
Si      3.284537237161263      1.120441294308588      3.213403923991486
C       4.379382982881684      2.129839544437507      2.356027730546787
Si      5.474228728602105      3.310132785749430      3.213403923991486
C       6.569074474322527      4.319531035878349      2.356027730546787
Si      7.663920220042947      5.499824277190272      3.213403923991486
C       8.758765965763368      6.509222527319191      2.356027730546787
Si      9.853611711483790      7.689515768631114      3.213403923991486
C       4.379382982881684     -0.059851947003336      4.545719221987628
Si      5.474228728602105      1.120441294308588      5.403095415432328
C       6.569074474322527      2.129839544437507      4.545719221987628
Si      7.663920220042947      3.310132785749430      5.403095415432328
C       8.758765965763368      4.319531035878349      4.545719221987628
Si      9.853611711483790      5.499824277190272      5.403095415432328
C      10.948457457204210      6.509222527319191      4.545719221987628
Si     12.043303202924632      7.689515768631114      5.403095415432328
C       6.569074474322527     -0.059851947003336      6.735410713428471
Si      7.663920220042947      1.120441294308588      7.592786906873171
C       8.758765965763368      2.129839544437507      6.735410713428471
Si      9.853611711483790      3.310132785749430      7.592786906873171
C      10.948457457204210      4.319531035878349      6.735410713428471
Si     12.043303202924632      5.499824277190272      7.592786906873171
C      13.138148948645053      6.509222527319191      6.735410713428471
Si     14.232994694365475      7.689515768631114      7.592786906873171
C       0.000000000000000      2.129839544437507      2.356027730546787
Si      1.094845745720421      3.310132785749430      3.213403923991486
C       2.189691491440842      4.319531035878349      2.356027730546787
Si      3.284537237161263      5.499824277190272      3.213403923991486
C       4.379382982881684      6.509222527319191      2.356027730546787
Si      5.474228728602105      7.689515768631114      3.213403923991486
C       6.569074474322527      8.698914018760032      2.356027730546787
Si      7.663920220042947      9.879207260071958      3.213403923991486
C       2.189691491440842      2.129839544437507      4.545719221987628
Si      3.284537237161263      3.310132785749430      5.403095415432328
C       4.379382982881684      4.319531035878349      4.545719221987628
Si      5.474228728602105      5.499824277190272      5.403095415432328
C       6.569074474322527      6.509222527319191      4.545719221987628
Si      7.663920220042947      7.689515768631114      5.403095415432328
C       8.758765965763368      8.698914018760032      4.545719221987628
Si      9.853611711483790      9.879207260071958      5.403095415432328
C       4.379382982881684      2.129839544437507      6.735410713428471
Si      5.474228728602105      3.310132785749430      7.592786906873171
C       6.569074474322527      4.319531035878349      6.735410713428471
Si      7.663920220042947      5.499824277190272      7.592786906873171
C       8.758765965763368      6.509222527319191      6.735410713428471
Si      9.853611711483790      7.689515768631114      7.592786906873171
C      10.948457457204210      8.698914018760032      6.735410713428471
Si     12.043303202924632      9.879207260071958      7.592786906873171
C       6.569074474322527      2.129839544437507      8.925102204869313
Si      7.663920220042947      3.310132785749430      9.782478398314014
C       8.758765965763368      4.319531035878349      8.925102204869313
Si      9.853611711483790      5.499824277190272      9.782478398314014
C      10.948457457204210      6.509222527319191      8.925102204869313
Si     12.043303202924632      7.689515768631114      9.782478398314014
C      13.138148948645053      8.698914018760032      8.925102204869313
Si     14.232994694365475      9.879207260071958      9.782478398314014
C       0.000000000000000      4.319531035878349      4.545719221987628
Si      1.094845745720421      5.499824277190272      5.403095415432328
C       2.189691491440842      6.509222527319191      4.545719221987628
Si      3.284537237161263      7.689515768631114      5.403095415432328
C       4.379382982881684      8.698914018760032      4.545719221987628
Si      5.474228728602105      9.879207260071958      5.403095415432328
C       6.569074474322527     10.888605510200874      4.545719221987628
Si      7.663920220042947     12.068898751512799      5.403095415432328
C       2.189691491440842      4.319531035878349      6.735410713428471
Si      3.284537237161263      5.499824277190272      7.592786906873171
C       4.379382982881684      6.509222527319191      6.735410713428471
Si      5.474228728602105      7.689515768631114      7.592786906873171
C       6.569074474322527      8.698914018760032      6.735410713428471
Si      7.663920220042947      9.879207260071958      7.592786906873171
C       8.758765965763368     10.888605510200874      6.735410713428471
Si      9.853611711483790     12.068898751512799      7.592786906873171
C       4.379382982881684      4.319531035878349      8.925102204869313
Si      5.474228728602105      5.499824277190272      9.782478398314014
C       6.569074474322527      6.509222527319191      8.925102204869313
Si      7.663920220042947      7.689515768631114      9.782478398314014
C       8.758765965763368      8.698914018760032      8.925102204869313
Si      9.853611711483790      9.879207260071958      9.782478398314014
C      10.948457457204210     10.888605510200874      8.925102204869313
Si     12.043303202924632     12.068898751512799      9.782478398314014
C       6.569074474322527      4.319531035878349     11.114793696310155
Si      7.663920220042947      5.499824277190272     11.972169889754856
C       8.758765965763368      6.509222527319191     11.114793696310155
Si      9.853611711483790      7.689515768631114     11.972169889754856
C      10.948457457204210      8.698914018760032     11.114793696310155
Si     12.043303202924632      9.879207260071958     11.972169889754856
C      13.138148948645053     10.888605510200874     11.114793696310155
Si     14.232994694365475     12.068898751512799     11.972169889754856
C       0.000000000000000      6.509222527319191      6.735410713428471
Si      1.094845745720421      7.689515768631114      7.592786906873171
C       2.189691491440842      8.698914018760032      6.735410713428471
Si      3.284537237161263      9.879207260071958      7.592786906873171
C       4.379382982881684     10.888605510200874      6.735410713428471
Si      5.474228728602105     12.068898751512799      7.592786906873171
C       6.569074474322527     13.078297001641717      6.735410713428471
Si      7.663920220042947     14.258590242953643      7.592786906873171
C       2.189691491440842      6.509222527319191      8.925102204869313
Si      3.284537237161263      7.689515768631114      9.782478398314014
C       4.379382982881684      8.698914018760032      8.925102204869313
Si      5.474228728602105      9.879207260071958      9.782478398314014
C       6.569074474322527     10.888605510200874      8.925102204869313
Si      7.663920220042947     12.068898751512799      9.782478398314014
C       8.758765965763368     13.078297001641717      8.925102204869313
Si      9.853611711483790     14.258590242953643      9.782478398314014
C       4.379382982881684      6.509222527319191     11.114793696310155
Si      5.474228728602105      7.689515768631114     11.972169889754856
C       6.569074474322527      8.698914018760032     11.114793696310155
Si      7.663920220042947      9.879207260071958     11.972169889754856
C       8.758765965763368     10.888605510200874     11.114793696310155
Si      9.853611711483790     12.068898751512799     11.972169889754856
C      10.948457457204210     13.078297001641717     11.114793696310155
Si     12.043303202924632     14.258590242953643     11.972169889754856
C       6.569074474322527      6.509222527319191     13.304485187750998
Si      7.663920220042947      7.689515768631114     14.161861381195699
C       8.758765965763368      8.698914018760032     13.304485187750998
Si      9.853611711483790      9.879207260071958     14.161861381195699
C      10.948457457204210     10.888605510200874     13.304485187750998
Si     12.043303202924632     12.068898751512799     14.161861381195699
C      13.138148948645053     13.078297001641717     13.304485187750998
Si     14.232994694365475     14.258590242953643     14.161861381195699
128

C       0.000000000000000     -0.068477977528196      0.190309084564729
Si      1.094845745720421      1.124130196582891      1.013460499882477
C       2.189691491440842      2.121213513912647      0.190309084564729
Si      3.284537237161263      3.313821688023733      1.013460499882477
C       4.379382982881684      4.310905005353488      0.190309084564729
Si      5.474228728602105      5.503513179464575      1.013460499882477
C       6.569074474322527      6.500596496794331      0.190309084564729
Si      7.663920220042947      7.693204670905417      1.013460499882477
C       2.189691491440842     -0.068477977528196      2.380000576005571
Si      3.284537237161263      1.124130196582891      3.203151991323319
C       4.379382982881684      2.121213513912647      2.380000576005571
Si      5.474228728602105      3.313821688023733      3.203151991323319
C       6.569074474322527      4.310905005353488      2.380000576005571
Si      7.663920220042947      5.503513179464575      3.203151991323319
C       8.758765965763368      6.500596496794331      2.380000576005571
Si      9.853611711483790      7.693204670905417      3.203151991323319
C       4.379382982881684     -0.068477977528196      4.569692067446413
Si      5.474228728602105      1.124130196582891      5.392843482764160
C       6.569074474322527      2.121213513912647      4.569692067446413
Si      7.663920220042947      3.313821688023733      5.392843482764160
C       8.758765965763368      4.310905005353488      4.569692067446413
Si      9.853611711483790      5.503513179464575      5.392843482764160
C      10.948457457204210      6.500596496794331      4.569692067446413
Si     12.043303202924632      7.693204670905417      5.392843482764160
C       6.569074474322527     -0.068477977528196      6.759383558887255
Si      7.663920220042947      1.124130196582891      7.582534974205003
C       8.758765965763368      2.121213513912647      6.759383558887255
Si      9.853611711483790      3.313821688023733      7.582534974205003
C      10.948457457204210      4.310905005353488      6.759383558887255
Si     12.043303202924632      5.503513179464575      7.582534974205003
C      13.138148948645053      6.500596496794331      6.759383558887255
Si     14.232994694365475      7.693204670905417      7.582534974205003
C       0.000000000000000      2.121213513912647      2.380000576005571
Si      1.094845745720421      3.313821688023733      3.203151991323319
C       2.189691491440842      4.310905005353488      2.380000576005571
Si      3.284537237161263      5.503513179464575      3.203151991323319
C       4.379382982881684      6.500596496794331      2.380000576005571
Si      5.474228728602105      7.693204670905417      3.203151991323319
C       6.569074474322527      8.690287988235173      2.380000576005571
Si      7.663920220042947      9.882896162346260      3.203151991323319
C       2.189691491440842      2.121213513912647      4.569692067446413
Si      3.284537237161263      3.313821688023733      5.392843482764160
C       4.379382982881684      4.310905005353488      4.569692067446413
Si      5.474228728602105      5.503513179464575      5.392843482764160
C       6.569074474322527      6.500596496794331      4.569692067446413
Si      7.663920220042947      7.693204670905417      5.392843482764160
C       8.758765965763368      8.690287988235173      4.569692067446413
Si      9.853611711483790      9.882896162346260      5.392843482764160
C       4.379382982881684      2.121213513912647      6.759383558887255
Si      5.474228728602105      3.313821688023733      7.582534974205003
C       6.569074474322527      4.310905005353488      6.759383558887255
Si      7.663920220042947      5.503513179464575      7.582534974205003
C       8.758765965763368      6.500596496794331      6.759383558887255
Si      9.853611711483790      7.693204670905417      7.582534974205003
C      10.948457457204210      8.690287988235173      6.759383558887255
Si     12.043303202924632      9.882896162346260      7.582534974205003
C       6.569074474322527      2.121213513912647      8.949075050328098
Si      7.663920220042947      3.313821688023733      9.772226465645845
C       8.758765965763368      4.310905005353488      8.949075050328098
Si      9.853611711483790      5.503513179464575      9.772226465645845
C      10.948457457204210      6.500596496794331      8.949075050328098
Si     12.043303202924632      7.693204670905417      9.772226465645845
C      13.138148948645053      8.690287988235173      8.949075050328098
Si     14.232994694365475      9.882896162346260      9.772226465645845
C       0.000000000000000      4.310905005353488      4.569692067446413
Si      1.094845745720421      5.503513179464575      5.392843482764160
C       2.189691491440842      6.500596496794331      4.569692067446413
Si      3.284537237161263      7.693204670905417      5.392843482764160
C       4.379382982881684      8.690287988235173      4.569692067446413
Si      5.474228728602105      9.882896162346260      5.392843482764160
C       6.569074474322527     10.879979479676015      4.569692067446413
Si      7.663920220042947     12.072587653787101      5.392843482764160
C       2.189691491440842      4.310905005353488      6.759383558887255
Si      3.284537237161263      5.503513179464575      7.582534974205003
C       4.379382982881684      6.500596496794331      6.759383558887255
Si      5.474228728602105      7.693204670905417      7.582534974205003
C       6.569074474322527      8.690287988235173      6.759383558887255
Si      7.663920220042947      9.882896162346260      7.582534974205003
C       8.758765965763368     10.879979479676015      6.759383558887255
Si      9.853611711483790     12.072587653787101      7.582534974205003
C       4.379382982881684      4.310905005353488      8.949075050328098
Si      5.474228728602105      5.503513179464575      9.772226465645845
C       6.569074474322527      6.500596496794331      8.949075050328098
Si      7.663920220042947      7.693204670905417      9.772226465645845
C       8.758765965763368      8.690287988235173      8.949075050328098
Si      9.853611711483790      9.882896162346260      9.772226465645845
C      10.948457457204210     10.879979479676015      8.949075050328098
Si     12.043303202924632     12.072587653787101      9.772226465645845
C       6.569074474322527      4.310905005353488     11.138766541768938
Si      7.663920220042947      5.503513179464575     11.961917957086687
C       8.758765965763368      6.500596496794331     11.138766541768938
Si      9.853611711483790      7.693204670905417     11.961917957086687
C      10.948457457204210      8.690287988235173     11.138766541768938
Si     12.043303202924632      9.882896162346260     11.961917957086687
C      13.138148948645053     10.879979479676015     11.138766541768938
Si     14.232994694365475     12.072587653787101     11.961917957086687
C       0.000000000000000      6.500596496794331      6.759383558887255
Si      1.094845745720421      7.693204670905417      7.582534974205003
C       2.189691491440842      8.690287988235173      6.759383558887255
Si      3.284537237161263      9.882896162346260      7.582534974205003
C       4.379382982881684     10.879979479676015      6.759383558887255
Si      5.474228728602105     12.072587653787101      7.582534974205003
C       6.569074474322527     13.069670971116858      6.759383558887255
Si      7.663920220042947     14.262279145227945      7.582534974205003
C       2.189691491440842      6.500596496794331      8.949075050328098
Si      3.284537237161263      7.693204670905417      9.772226465645845
C       4.379382982881684      8.690287988235173      8.949075050328098
Si      5.474228728602105      9.882896162346260      9.772226465645845
C       6.569074474322527     10.879979479676015      8.949075050328098
Si      7.663920220042947     12.072587653787101      9.772226465645845
C       8.758765965763368     13.069670971116858      8.949075050328098
Si      9.853611711483790     14.262279145227945      9.772226465645845
C       4.379382982881684      6.500596496794331     11.138766541768938
Si      5.474228728602105      7.693204670905417     11.961917957086687
C       6.569074474322527      8.690287988235173     11.138766541768938
Si      7.663920220042947      9.882896162346260     11.961917957086687
C       8.758765965763368     10.879979479676015     11.138766541768938
Si      9.853611711483790     12.072587653787101     11.961917957086687
C      10.948457457204210     13.069670971116858     11.138766541768938
Si     12.043303202924632     14.262279145227945     11.961917957086687
C       6.569074474322527      6.500596496794331     13.328458033209781
Si      7.663920220042947      7.693204670905417     14.151609448527530
C       8.758765965763368      8.690287988235173     13.328458033209781
Si      9.853611711483790      9.882896162346260     14.151609448527530
C      10.948457457204210     10.879979479676015     13.328458033209781
Si     12.043303202924632     12.072587653787101     14.151609448527530
C      13.138148948645053     13.069670971116858     13.328458033209781
Si     14.232994694365475     14.262279145227945     14.151609448527530
128

C       0.000000000000000     -0.075417852980934      0.209595888761889
Si      1.094845745720421      1.127098018487440      1.005212542068985
C       2.189691491440842      2.114273638459908      0.209595888761889
Si      3.284537237161263      3.316789509928282      1.005212542068985
C       4.379382982881684      4.303965129900750      0.209595888761889
Si      5.474228728602105      5.506481001369123      1.005212542068985
C       6.569074474322527      6.493656621341593      0.209595888761889
Si      7.663920220042947      7.696172492809966      1.005212542068985
C       2.189691491440842     -0.075417852980934      2.399287380202731
Si      3.284537237161263      1.127098018487440      3.194904033509827
C       4.379382982881684      2.114273638459908      2.399287380202731
Si      5.474228728602105      3.316789509928282      3.194904033509827
C       6.569074474322527      4.303965129900750      2.399287380202731
Si      7.663920220042947      5.506481001369123      3.194904033509827
C       8.758765965763368      6.493656621341593      2.399287380202731
Si      9.853611711483790      7.696172492809966      3.194904033509827
C       4.379382982881684     -0.075417852980934      4.588978871643572
Si      5.474228728602105      1.127098018487440      5.384595524950669
C       6.569074474322527      2.114273638459908      4.588978871643572
Si      7.663920220042947      3.316789509928282      5.384595524950669
C       8.758765965763368      4.303965129900750      4.588978871643572
Si      9.853611711483790      5.506481001369123      5.384595524950669
C      10.948457457204210      6.493656621341593      4.588978871643572
Si     12.043303202924632      7.696172492809966      5.384595524950669
C       6.569074474322527     -0.075417852980934      6.778670363084415
Si      7.663920220042947      1.127098018487440      7.574287016391511
C       8.758765965763368      2.114273638459908      6.778670363084415
Si      9.853611711483790      3.316789509928282      7.574287016391511
C      10.948457457204210      4.303965129900750      6.778670363084415
Si     12.043303202924632      5.506481001369123      7.574287016391511
C      13.138148948645053      6.493656621341593      6.778670363084415
Si     14.232994694365475      7.696172492809966      7.574287016391511
C       0.000000000000000      2.114273638459908      2.399287380202731
Si      1.094845745720421      3.316789509928282      3.194904033509827
C       2.189691491440842      4.303965129900750      2.399287380202731
Si      3.284537237161263      5.506481001369123      3.194904033509827
C       4.379382982881684      6.493656621341593      2.399287380202731
Si      5.474228728602105      7.696172492809966      3.194904033509827
C       6.569074474322527      8.683348112782435      2.399287380202731
Si      7.663920220042947      9.885863984250809      3.194904033509827
C       2.189691491440842      2.114273638459908      4.588978871643572
Si      3.284537237161263      3.316789509928282      5.384595524950669
C       4.379382982881684      4.303965129900750      4.588978871643572
Si      5.474228728602105      5.506481001369123      5.384595524950669
C       6.569074474322527      6.493656621341593      4.588978871643572
Si      7.663920220042947      7.696172492809966      5.384595524950669
C       8.758765965763368      8.683348112782435      4.588978871643572
Si      9.853611711483790      9.885863984250809      5.384595524950669
C       4.379382982881684      2.114273638459908      6.778670363084415
Si      5.474228728602105      3.316789509928282      7.574287016391511
C       6.569074474322527      4.303965129900750      6.778670363084415
Si      7.663920220042947      5.506481001369123      7.574287016391511
C       8.758765965763368      6.493656621341593      6.778670363084415
Si      9.853611711483790      7.696172492809966      7.574287016391511
C      10.948457457204210      8.683348112782435      6.778670363084415
Si     12.043303202924632      9.885863984250809      7.574287016391511
C       6.569074474322527      2.114273638459908      8.968361854525257
Si      7.663920220042947      3.316789509928282      9.763978507832354
C       8.758765965763368      4.303965129900750      8.968361854525257
Si      9.853611711483790      5.506481001369123      9.763978507832354
C      10.948457457204210      6.493656621341593      8.968361854525257
Si     12.043303202924632      7.696172492809966      9.763978507832354
C      13.138148948645053      8.683348112782435      8.968361854525257
Si     14.232994694365475      9.885863984250809      9.763978507832354
C       0.000000000000000      4.303965129900750      4.588978871643572
Si      1.094845745720421      5.506481001369123      5.384595524950669
C       2.189691491440842      6.493656621341593      4.588978871643572
Si      3.284537237161263      7.696172492809966      5.384595524950669
C       4.379382982881684      8.683348112782435      4.588978871643572
Si      5.474228728602105      9.885863984250809      5.384595524950669
C       6.569074474322527     10.873039604223276      4.588978871643572
Si      7.663920220042947     12.075555475691651      5.384595524950669
C       2.189691491440842      4.303965129900750      6.778670363084415
Si      3.284537237161263      5.506481001369123      7.574287016391511
C       4.379382982881684      6.493656621341593      6.778670363084415
Si      5.474228728602105      7.696172492809966      7.574287016391511
C       6.569074474322527      8.683348112782435      6.778670363084415
Si      7.663920220042947      9.885863984250809      7.574287016391511
C       8.758765965763368     10.873039604223276      6.778670363084415
Si      9.853611711483790     12.075555475691651      7.574287016391511
C       4.379382982881684      4.303965129900750      8.968361854525257
Si      5.474228728602105      5.506481001369123      9.763978507832354
C       6.569074474322527      6.493656621341593      8.968361854525257
Si      7.663920220042947      7.696172492809966      9.763978507832354
C       8.758765965763368      8.683348112782435      8.968361854525257
Si      9.853611711483790      9.885863984250809      9.763978507832354
C      10.948457457204210     10.873039604223276      8.968361854525257
Si     12.043303202924632     12.075555475691651      9.763978507832354
C       6.569074474322527      4.303965129900750     11.158053345966099
Si      7.663920220042947      5.506481001369123     11.953669999273195
C       8.758765965763368      6.493656621341593     11.158053345966099
Si      9.853611711483790      7.696172492809966     11.953669999273195
C      10.948457457204210      8.683348112782435     11.158053345966099
Si     12.043303202924632      9.885863984250809     11.953669999273195
C      13.138148948645053     10.873039604223276     11.158053345966099
Si     14.232994694365475     12.075555475691651     11.953669999273195
C       0.000000000000000      6.493656621341593      6.778670363084415
Si      1.094845745720421      7.696172492809966      7.574287016391511
C       2.189691491440842      8.683348112782435      6.778670363084415
Si      3.284537237161263      9.885863984250809      7.574287016391511
C       4.379382982881684     10.873039604223276      6.778670363084415
Si      5.474228728602105     12.075555475691651      7.574287016391511
C       6.569074474322527     13.062731095664120      6.778670363084415
Si      7.663920220042947     14.265246967132494      7.574287016391511
C       2.189691491440842      6.493656621341593      8.968361854525257
Si      3.284537237161263      7.696172492809966      9.763978507832354
C       4.379382982881684      8.683348112782435      8.968361854525257
Si      5.474228728602105      9.885863984250809      9.763978507832354
C       6.569074474322527     10.873039604223276      8.968361854525257
Si      7.663920220042947     12.075555475691651      9.763978507832354
C       8.758765965763368     13.062731095664120      8.968361854525257
Si      9.853611711483790     14.265246967132494      9.763978507832354
C       4.379382982881684      6.493656621341593     11.158053345966099
Si      5.474228728602105      7.696172492809966     11.953669999273195
C       6.569074474322527      8.683348112782435     11.158053345966099
Si      7.663920220042947      9.885863984250809     11.953669999273195
C       8.758765965763368     10.873039604223276     11.158053345966099
Si      9.853611711483790     12.075555475691651     11.953669999273195
C      10.948457457204210     13.062731095664120     11.158053345966099
Si     12.043303202924632     14.265246967132494     11.953669999273195
C       6.569074474322527      6.493656621341593     13.347744837406943
Si      7.663920220042947      7.696172492809966     14.143361490714039
C       8.758765965763368      8.683348112782435     13.347744837406943
Si      9.853611711483790      9.885863984250809     14.143361490714039
C      10.948457457204210     10.873039604223276     13.347744837406943
Si     12.043303202924632     12.075555475691651     14.143361490714039
C      13.138148948645053     13.062731095664120     13.347744837406943
Si     14.232994694365475     14.265246967132494     14.143361490714039
128

C       0.000000000000000     -0.080500690595778      0.223721746568857
Si      1.094845745720421      1.129271682397308      0.999171651204939
C       2.189691491440842      2.109190800845064      0.223721746568857
Si      3.284537237161263      3.318963173838150      0.999171651204939
C       4.379382982881684      4.298882292285906      0.223721746568857
Si      5.474228728602105      5.508654665278992      0.999171651204939
C       6.569074474322527      6.488573783726749      0.223721746568857
Si      7.663920220042947      7.698346156719834      0.999171651204939
C       2.189691491440842     -0.080500690595778      2.413413238009699
Si      3.284537237161263      1.129271682397308      3.188863142645781
C       4.379382982881684      2.109190800845064      2.413413238009699
Si      5.474228728602105      3.318963173838150      3.188863142645781
C       6.569074474322527      4.298882292285906      2.413413238009699
Si      7.663920220042947      5.508654665278992      3.188863142645781
C       8.758765965763368      6.488573783726749      2.413413238009699
Si      9.853611711483790      7.698346156719834      3.188863142645781
C       4.379382982881684     -0.080500690595778      4.603104729450541
Si      5.474228728602105      1.129271682397308      5.378554634086623
C       6.569074474322527      2.109190800845064      4.603104729450541
Si      7.663920220042947      3.318963173838150      5.378554634086623
C       8.758765965763368      4.298882292285906      4.603104729450541
Si      9.853611711483790      5.508654665278992      5.378554634086623
C      10.948457457204210      6.488573783726749      4.603104729450541
Si     12.043303202924632      7.698346156719834      5.378554634086623
C       6.569074474322527     -0.080500690595778      6.792796220891384
Si      7.663920220042947      1.129271682397308      7.568246125527465
C       8.758765965763368      2.109190800845064      6.792796220891384
Si      9.853611711483790      3.318963173838150      7.568246125527465
C      10.948457457204210      4.298882292285906      6.792796220891384
Si     12.043303202924632      5.508654665278992      7.568246125527465
C      13.138148948645053      6.488573783726749      6.792796220891384
Si     14.232994694365475      7.698346156719834      7.568246125527465
C       0.000000000000000      2.109190800845064      2.413413238009699
Si      1.094845745720421      3.318963173838150      3.188863142645781
C       2.189691491440842      4.298882292285906      2.413413238009699
Si      3.284537237161263      5.508654665278992      3.188863142645781
C       4.379382982881684      6.488573783726749      2.413413238009699
Si      5.474228728602105      7.698346156719834      3.188863142645781
C       6.569074474322527      8.678265275167591      2.413413238009699
Si      7.663920220042947      9.888037648160678      3.188863142645781
C       2.189691491440842      2.109190800845064      4.603104729450541
Si      3.284537237161263      3.318963173838150      5.378554634086623
C       4.379382982881684      4.298882292285906      4.603104729450541
Si      5.474228728602105      5.508654665278992      5.378554634086623
C       6.569074474322527      6.488573783726749      4.603104729450541
Si      7.663920220042947      7.698346156719834      5.378554634086623
C       8.758765965763368      8.678265275167591      4.603104729450541
Si      9.853611711483790      9.888037648160678      5.378554634086623
C       4.379382982881684      2.109190800845064      6.792796220891384
Si      5.474228728602105      3.318963173838150      7.568246125527465
C       6.569074474322527      4.298882292285906      6.792796220891384
Si      7.663920220042947      5.508654665278992      7.568246125527465
C       8.758765965763368      6.488573783726749      6.792796220891384
Si      9.853611711483790      7.698346156719834      7.568246125527465
C      10.948457457204210      8.678265275167591      6.792796220891384
Si     12.043303202924632      9.888037648160678      7.568246125527465
C       6.569074474322527      2.109190800845064      8.982487712332226
Si      7.663920220042947      3.318963173838150      9.757937616968308
C       8.758765965763368      4.298882292285906      8.982487712332226
Si      9.853611711483790      5.508654665278992      9.757937616968308
C      10.948457457204210      6.488573783726749      8.982487712332226
Si     12.043303202924632      7.698346156719834      9.757937616968308
C      13.138148948645053      8.678265275167591      8.982487712332226
Si     14.232994694365475      9.888037648160678      9.757937616968308
C       0.000000000000000      4.298882292285906      4.603104729450541
Si      1.094845745720421      5.508654665278992      5.378554634086623
C       2.189691491440842      6.488573783726749      4.603104729450541
Si      3.284537237161263      7.698346156719834      5.378554634086623
C       4.379382982881684      8.678265275167591      4.603104729450541
Si      5.474228728602105      9.888037648160678      5.378554634086623
C       6.569074474322527     10.867956766608433      4.603104729450541
Si      7.663920220042947     12.077729139601519      5.378554634086623
C       2.189691491440842      4.298882292285906      6.792796220891384
Si      3.284537237161263      5.508654665278992      7.568246125527465
C       4.379382982881684      6.488573783726749      6.792796220891384
Si      5.474228728602105      7.698346156719834      7.568246125527465
C       6.569074474322527      8.678265275167591      6.792796220891384
Si      7.663920220042947      9.888037648160678      7.568246125527465
C       8.758765965763368     10.867956766608433      6.792796220891384
Si      9.853611711483790     12.077729139601519      7.568246125527465
C       4.379382982881684      4.298882292285906      8.982487712332226
Si      5.474228728602105      5.508654665278992      9.757937616968308
C       6.569074474322527      6.488573783726749      8.982487712332226
Si      7.663920220042947      7.698346156719834      9.757937616968308
C       8.758765965763368      8.678265275167591      8.982487712332226
Si      9.853611711483790      9.888037648160678      9.757937616968308
C      10.948457457204210     10.867956766608433      8.982487712332226
Si     12.043303202924632     12.077729139601519      9.757937616968308
C       6.569074474322527      4.298882292285906     11.172179203773068
Si      7.663920220042947      5.508654665278992     11.947629108409149
C       8.758765965763368      6.488573783726749     11.172179203773068
Si      9.853611711483790      7.698346156719834     11.947629108409149
C      10.948457457204210      8.678265275167591     11.172179203773068
Si     12.043303202924632      9.888037648160678     11.947629108409149
C      13.138148948645053     10.867956766608433     11.172179203773068
Si     14.232994694365475     12.077729139601519     11.947629108409149
C       0.000000000000000      6.488573783726749      6.792796220891384
Si      1.094845745720421      7.698346156719834      7.568246125527465
C       2.189691491440842      8.678265275167591      6.792796220891384
Si      3.284537237161263      9.888037648160678      7.568246125527465
C       4.379382982881684     10.867956766608433      6.792796220891384
Si      5.474228728602105     12.077729139601519      7.568246125527465
C       6.569074474322527     13.057648258049277      6.792796220891384
Si      7.663920220042947     14.267420631042363      7.568246125527465
C       2.189691491440842      6.488573783726749      8.982487712332226
Si      3.284537237161263      7.698346156719834      9.757937616968308
C       4.379382982881684      8.678265275167591      8.982487712332226
Si      5.474228728602105      9.888037648160678      9.757937616968308
C       6.569074474322527     10.867956766608433      8.982487712332226
Si      7.663920220042947     12.077729139601519      9.757937616968308
C       8.758765965763368     13.057648258049277      8.982487712332226
Si      9.853611711483790     14.267420631042363      9.757937616968308
C       4.379382982881684      6.488573783726749     11.172179203773068
Si      5.474228728602105      7.698346156719834     11.947629108409149
C       6.569074474322527      8.678265275167591     11.172179203773068
Si      7.663920220042947      9.888037648160678     11.947629108409149
C       8.758765965763368     10.867956766608433     11.172179203773068
Si      9.853611711483790     12.077729139601519     11.947629108409149
C      10.948457457204210     13.057648258049277     11.172179203773068
Si     12.043303202924632     14.267420631042363     11.947629108409149
C       6.569074474322527      6.488573783726749     13.361870695213911
Si      7.663920220042947      7.698346156719834     14.137320599849993
C       8.758765965763368      8.678265275167591     13.361870695213911
Si      9.853611711483790      9.888037648160678     14.137320599849993
C      10.948457457204210     10.867956766608433     13.361870695213911
Si     12.043303202924632     12.077729139601519     14.137320599849993
C      13.138148948645053     13.057648258049277     13.361870695213911
Si     14.232994694365475     14.267420631042363     14.137320599849993
128

C       0.000000000000000     -0.083601334041678      0.232338832485392
Si      1.094845745720421      1.130597665493058      0.995486574071979
C       2.189691491440842      2.106090157399163      0.232338832485392
Si      3.284537237161263      3.320289156933900      0.995486574071979
C       4.379382982881684      4.295781648840006      0.232338832485392
Si      5.474228728602105      5.509980648374742      0.995486574071979
C       6.569074474322527      6.485473140280848      0.232338832485392
Si      7.663920220042947      7.699672139815585      0.995486574071979
C       2.189691491440842     -0.083601334041678      2.422030323926235
Si      3.284537237161263      1.130597665493058      3.185178065512822
C       4.379382982881684      2.106090157399163      2.422030323926235
Si      5.474228728602105      3.320289156933900      3.185178065512822
C       6.569074474322527      4.295781648840006      2.422030323926235
Si      7.663920220042947      5.509980648374742      3.185178065512822
C       8.758765965763368      6.485473140280848      2.422030323926235
Si      9.853611711483790      7.699672139815585      3.185178065512822
C       4.379382982881684     -0.083601334041678      4.611721815367076
Si      5.474228728602105      1.130597665493058      5.374869556953663
C       6.569074474322527      2.106090157399163      4.611721815367076
Si      7.663920220042947      3.320289156933900      5.374869556953663
C       8.758765965763368      4.295781648840006      4.611721815367076
Si      9.853611711483790      5.509980648374742      5.374869556953663
C      10.948457457204210      6.485473140280848      4.611721815367076
Si     12.043303202924632      7.699672139815585      5.374869556953663
C       6.569074474322527     -0.083601334041678      6.801413306807919
Si      7.663920220042947      1.130597665493058      7.564561048394506
C       8.758765965763368      2.106090157399163      6.801413306807919
Si      9.853611711483790      3.320289156933900      7.564561048394506
C      10.948457457204210      4.295781648840006      6.801413306807919
Si     12.043303202924632      5.509980648374742      7.564561048394506
C      13.138148948645053      6.485473140280848      6.801413306807919
Si     14.232994694365475      7.699672139815585      7.564561048394506
C       0.000000000000000      2.106090157399163      2.422030323926235
Si      1.094845745720421      3.320289156933900      3.185178065512822
C       2.189691491440842      4.295781648840006      2.422030323926235
Si      3.284537237161263      5.509980648374742      3.185178065512822
C       4.379382982881684      6.485473140280848      2.422030323926235
Si      5.474228728602105      7.699672139815585      3.185178065512822
C       6.569074474322527      8.675164631721691      2.422030323926235
Si      7.663920220042947      9.889363631256426      3.185178065512822
C       2.189691491440842      2.106090157399163      4.611721815367076
Si      3.284537237161263      3.320289156933900      5.374869556953663
C       4.379382982881684      4.295781648840006      4.611721815367076
Si      5.474228728602105      5.509980648374742      5.374869556953663
C       6.569074474322527      6.485473140280848      4.611721815367076
Si      7.663920220042947      7.699672139815585      5.374869556953663
C       8.758765965763368      8.675164631721691      4.611721815367076
Si      9.853611711483790      9.889363631256426      5.374869556953663
C       4.379382982881684      2.106090157399163      6.801413306807919
Si      5.474228728602105      3.320289156933900      7.564561048394506
C       6.569074474322527      4.295781648840006      6.801413306807919
Si      7.663920220042947      5.509980648374742      7.564561048394506
C       8.758765965763368      6.485473140280848      6.801413306807919
Si      9.853611711483790      7.699672139815585      7.564561048394506
C      10.948457457204210      8.675164631721691      6.801413306807919
Si     12.043303202924632      9.889363631256426      7.564561048394506
C       6.569074474322527      2.106090157399163      8.991104798248761
Si      7.663920220042947      3.320289156933900      9.754252539835349
C       8.758765965763368      4.295781648840006      8.991104798248761
Si      9.853611711483790      5.509980648374742      9.754252539835349
C      10.948457457204210      6.485473140280848      8.991104798248761
Si     12.043303202924632      7.699672139815585      9.754252539835349
C      13.138148948645053      8.675164631721691      8.991104798248761
Si     14.232994694365475      9.889363631256426      9.754252539835349
C       0.000000000000000      4.295781648840006      4.611721815367076
Si      1.094845745720421      5.509980648374742      5.374869556953663
C       2.189691491440842      6.485473140280848      4.611721815367076
Si      3.284537237161263      7.699672139815585      5.374869556953663
C       4.379382982881684      8.675164631721691      4.611721815367076
Si      5.474228728602105      9.889363631256426      5.374869556953663
C       6.569074474322527     10.864856123162532      4.611721815367076
Si      7.663920220042947     12.079055122697268      5.374869556953663
C       2.189691491440842      4.295781648840006      6.801413306807919
Si      3.284537237161263      5.509980648374742      7.564561048394506
C       4.379382982881684      6.485473140280848      6.801413306807919
Si      5.474228728602105      7.699672139815585      7.564561048394506
C       6.569074474322527      8.675164631721691      6.801413306807919
Si      7.663920220042947      9.889363631256426      7.564561048394506
C       8.758765965763368     10.864856123162532      6.801413306807919
Si      9.853611711483790     12.079055122697268      7.564561048394506
C       4.379382982881684      4.295781648840006      8.991104798248761
Si      5.474228728602105      5.509980648374742      9.754252539835349
C       6.569074474322527      6.485473140280848      8.991104798248761
Si      7.663920220042947      7.699672139815585      9.754252539835349
C       8.758765965763368      8.675164631721691      8.991104798248761
Si      9.853611711483790      9.889363631256426      9.754252539835349
C      10.948457457204210     10.864856123162532      8.991104798248761
Si     12.043303202924632     12.079055122697268      9.754252539835349
C       6.569074474322527      4.295781648840006     11.180796289689603
Si      7.663920220042947      5.509980648374742     11.943944031276191
C       8.758765965763368      6.485473140280848     11.180796289689603
Si      9.853611711483790      7.699672139815585     11.943944031276191
C      10.948457457204210      8.675164631721691     11.180796289689603
Si     12.043303202924632      9.889363631256426     11.943944031276191
C      13.138148948645053     10.864856123162532     11.180796289689603
Si     14.232994694365475     12.079055122697268     11.943944031276191
C       0.000000000000000      6.485473140280848      6.801413306807919
Si      1.094845745720421      7.699672139815585      7.564561048394506
C       2.189691491440842      8.675164631721691      6.801413306807919
Si      3.284537237161263      9.889363631256426      7.564561048394506
C       4.379382982881684     10.864856123162532      6.801413306807919
Si      5.474228728602105     12.079055122697268      7.564561048394506
C       6.569074474322527     13.054547614603376      6.801413306807919
Si      7.663920220042947     14.268746614138111      7.564561048394506
C       2.189691491440842      6.485473140280848      8.991104798248761
Si      3.284537237161263      7.699672139815585      9.754252539835349
C       4.379382982881684      8.675164631721691      8.991104798248761
Si      5.474228728602105      9.889363631256426      9.754252539835349
C       6.569074474322527     10.864856123162532      8.991104798248761
Si      7.663920220042947     12.079055122697268      9.754252539835349
C       8.758765965763368     13.054547614603376      8.991104798248761
Si      9.853611711483790     14.268746614138111      9.754252539835349
C       4.379382982881684      6.485473140280848     11.180796289689603
Si      5.474228728602105      7.699672139815585     11.943944031276191
C       6.569074474322527      8.675164631721691     11.180796289689603
Si      7.663920220042947      9.889363631256426     11.943944031276191
C       8.758765965763368     10.864856123162532     11.180796289689603
Si      9.853611711483790     12.079055122697268     11.943944031276191
C      10.948457457204210     13.054547614603376     11.180796289689603
Si     12.043303202924632     14.268746614138111     11.943944031276191
C       6.569074474322527      6.485473140280848     13.370487781130446
Si      7.663920220042947      7.699672139815585     14.133635522717034
C       8.758765965763368      8.675164631721691     13.370487781130446
Si      9.853611711483790      9.889363631256426     14.133635522717034
C      10.948457457204210     10.864856123162532     13.370487781130446
Si     12.043303202924632     12.079055122697268     14.133635522717034
C      13.138148948645053     13.054547614603376     13.370487781130446
Si     14.232994694365475     14.268746614138111     14.133635522717034
128

C       0.000000000000000     -0.084643435186553      0.235234965257761
Si      1.094845745720421      1.131043317670186      0.994248049499190
C       2.189691491440842      2.105048056254289      0.235234965257761
Si      3.284537237161263      3.320734809111029      0.994248049499190
C       4.379382982881684      4.294739547695132      0.235234965257761
Si      5.474228728602105      5.510426300551870      0.994248049499190
C       6.569074474322527      6.484431039135974      0.235234965257761
Si      7.663920220042947      7.700117791992713      0.994248049499190
C       2.189691491440842     -0.084643435186553      2.424926456698603
Si      3.284537237161263      1.131043317670186      3.183939540940032
C       4.379382982881684      2.105048056254289      2.424926456698603
Si      5.474228728602105      3.320734809111029      3.183939540940032
C       6.569074474322527      4.294739547695132      2.424926456698603
Si      7.663920220042947      5.510426300551870      3.183939540940032
C       8.758765965763368      6.484431039135974      2.424926456698603
Si      9.853611711483790      7.700117791992713      3.183939540940032
C       4.379382982881684     -0.084643435186553      4.614617948139445
Si      5.474228728602105      1.131043317670186      5.373631032380874
C       6.569074474322527      2.105048056254289      4.614617948139445
Si      7.663920220042947      3.320734809111029      5.373631032380874
C       8.758765965763368      4.294739547695132      4.614617948139445
Si      9.853611711483790      5.510426300551870      5.373631032380874
C      10.948457457204210      6.484431039135974      4.614617948139445
Si     12.043303202924632      7.700117791992713      5.373631032380874
C       6.569074474322527     -0.084643435186553      6.804309439580288
Si      7.663920220042947      1.131043317670186      7.563322523821716
C       8.758765965763368      2.105048056254289      6.804309439580288
Si      9.853611711483790      3.320734809111029      7.563322523821716
C      10.948457457204210      4.294739547695132      6.804309439580288
Si     12.043303202924632      5.510426300551870      7.563322523821716
C      13.138148948645053      6.484431039135974      6.804309439580288
Si     14.232994694365475      7.700117791992713      7.563322523821716
C       0.000000000000000      2.105048056254289      2.424926456698603
Si      1.094845745720421      3.320734809111029      3.183939540940032
C       2.189691491440842      4.294739547695132      2.424926456698603
Si      3.284537237161263      5.510426300551870      3.183939540940032
C       4.379382982881684      6.484431039135974      2.424926456698603
Si      5.474228728602105      7.700117791992713      3.183939540940032
C       6.569074474322527      8.674122530576815      2.424926456698603
Si      7.663920220042947      9.889809283433555      3.183939540940032
C       2.189691491440842      2.105048056254289      4.614617948139445
Si      3.284537237161263      3.320734809111029      5.373631032380874
C       4.379382982881684      4.294739547695132      4.614617948139445
Si      5.474228728602105      5.510426300551870      5.373631032380874
C       6.569074474322527      6.484431039135974      4.614617948139445
Si      7.663920220042947      7.700117791992713      5.373631032380874
C       8.758765965763368      8.674122530576815      4.614617948139445
Si      9.853611711483790      9.889809283433555      5.373631032380874
C       4.379382982881684      2.105048056254289      6.804309439580288
Si      5.474228728602105      3.320734809111029      7.563322523821716
C       6.569074474322527      4.294739547695132      6.804309439580288
Si      7.663920220042947      5.510426300551870      7.563322523821716
C       8.758765965763368      6.484431039135974      6.804309439580288
Si      9.853611711483790      7.700117791992713      7.563322523821716
C      10.948457457204210      8.674122530576815      6.804309439580288
Si     12.043303202924632      9.889809283433555      7.563322523821716
C       6.569074474322527      2.105048056254289      8.994000931021128
Si      7.663920220042947      3.320734809111029      9.753014015262560
C       8.758765965763368      4.294739547695132      8.994000931021128
Si      9.853611711483790      5.510426300551870      9.753014015262560
C      10.948457457204210      6.484431039135974      8.994000931021128
Si     12.043303202924632      7.700117791992713      9.753014015262560
C      13.138148948645053      8.674122530576815      8.994000931021128
Si     14.232994694365475      9.889809283433555      9.753014015262560
C       0.000000000000000      4.294739547695132      4.614617948139445
Si      1.094845745720421      5.510426300551870      5.373631032380874
C       2.189691491440842      6.484431039135974      4.614617948139445
Si      3.284537237161263      7.700117791992713      5.373631032380874
C       4.379382982881684      8.674122530576815      4.614617948139445
Si      5.474228728602105      9.889809283433555      5.373631032380874
C       6.569074474322527     10.863814022017657      4.614617948139445
Si      7.663920220042947     12.079500774874397      5.373631032380874
C       2.189691491440842      4.294739547695132      6.804309439580288
Si      3.284537237161263      5.510426300551870      7.563322523821716
C       4.379382982881684      6.484431039135974      6.804309439580288
Si      5.474228728602105      7.700117791992713      7.563322523821716
C       6.569074474322527      8.674122530576815      6.804309439580288
Si      7.663920220042947      9.889809283433555      7.563322523821716
C       8.758765965763368     10.863814022017657      6.804309439580288
Si      9.853611711483790     12.079500774874397      7.563322523821716
C       4.379382982881684      4.294739547695132      8.994000931021128
Si      5.474228728602105      5.510426300551870      9.753014015262560
C       6.569074474322527      6.484431039135974      8.994000931021128
Si      7.663920220042947      7.700117791992713      9.753014015262560
C       8.758765965763368      8.674122530576815      8.994000931021128
Si      9.853611711483790      9.889809283433555      9.753014015262560
C      10.948457457204210     10.863814022017657      8.994000931021128
Si     12.043303202924632     12.079500774874397      9.753014015262560
C       6.569074474322527      4.294739547695132     11.183692422461970
Si      7.663920220042947      5.510426300551870     11.942705506703401
C       8.758765965763368      6.484431039135974     11.183692422461970
Si      9.853611711483790      7.700117791992713     11.942705506703401
C      10.948457457204210      8.674122530576815     11.183692422461970
Si     12.043303202924632      9.889809283433555     11.942705506703401
C      13.138148948645053     10.863814022017657     11.183692422461970
Si     14.232994694365475     12.079500774874397     11.942705506703401
C       0.000000000000000      6.484431039135974      6.804309439580288
Si      1.094845745720421      7.700117791992713      7.563322523821716
C       2.189691491440842      8.674122530576815      6.804309439580288
Si      3.284537237161263      9.889809283433555      7.563322523821716
C       4.379382982881684     10.863814022017657      6.804309439580288
Si      5.474228728602105     12.079500774874397      7.563322523821716
C       6.569074474322527     13.053505513458500      6.804309439580288
Si      7.663920220042947     14.269192266315240      7.563322523821716
C       2.189691491440842      6.484431039135974      8.994000931021128
Si      3.284537237161263      7.700117791992713      9.753014015262560
C       4.379382982881684      8.674122530576815      8.994000931021128
Si      5.474228728602105      9.889809283433555      9.753014015262560
C       6.569074474322527     10.863814022017657      8.994000931021128
Si      7.663920220042947     12.079500774874397      9.753014015262560
C       8.758765965763368     13.053505513458500      8.994000931021128
Si      9.853611711483790     14.269192266315240      9.753014015262560
C       4.379382982881684      6.484431039135974     11.183692422461970
Si      5.474228728602105      7.700117791992713     11.942705506703401
C       6.569074474322527      8.674122530576815     11.183692422461970
Si      7.663920220042947      9.889809283433555     11.942705506703401
C       8.758765965763368     10.863814022017657     11.183692422461970
Si      9.853611711483790     12.079500774874397     11.942705506703401
C      10.948457457204210     13.053505513458500     11.183692422461970
Si     12.043303202924632     14.269192266315240     11.942705506703401
C       6.569074474322527      6.484431039135974     13.373383913902813
Si      7.663920220042947      7.700117791992713     14.132396998144245
C       8.758765965763368      8.674122530576815     13.373383913902813
Si      9.853611711483790      9.889809283433555     14.132396998144245
C      10.948457457204210     10.863814022017657     13.373383913902813
Si     12.043303202924632     12.079500774874397     14.132396998144245
C      13.138148948645053     13.053505513458500     13.373383913902813
Si     14.232994694365475     14.269192266315240     14.132396998144245
128

C       0.000000000000000     -0.083601334041678      0.232338832485392
Si      1.094845745720421      1.130597665493058      0.995486574071979
C       2.189691491440842      2.106090157399163      0.232338832485392
Si      3.284537237161263      3.320289156933900      0.995486574071979
C       4.379382982881684      4.295781648840006      0.232338832485392
Si      5.474228728602105      5.509980648374742      0.995486574071979
C       6.569074474322527      6.485473140280848      0.232338832485392
Si      7.663920220042947      7.699672139815585      0.995486574071979
C       2.189691491440842     -0.083601334041678      2.422030323926235
Si      3.284537237161263      1.130597665493058      3.185178065512822
C       4.379382982881684      2.106090157399163      2.422030323926235
Si      5.474228728602105      3.320289156933900      3.185178065512822
C       6.569074474322527      4.295781648840006      2.422030323926235
Si      7.663920220042947      5.509980648374742      3.185178065512822
C       8.758765965763368      6.485473140280848      2.422030323926235
Si      9.853611711483790      7.699672139815585      3.185178065512822
C       4.379382982881684     -0.083601334041678      4.611721815367076
Si      5.474228728602105      1.130597665493058      5.374869556953663
C       6.569074474322527      2.106090157399163      4.611721815367076
Si      7.663920220042947      3.320289156933900      5.374869556953663
C       8.758765965763368      4.295781648840006      4.611721815367076
Si      9.853611711483790      5.509980648374742      5.374869556953663
C      10.948457457204210      6.485473140280848      4.611721815367076
Si     12.043303202924632      7.699672139815585      5.374869556953663
C       6.569074474322527     -0.083601334041678      6.801413306807919
Si      7.663920220042947      1.130597665493058      7.564561048394506
C       8.758765965763368      2.106090157399163      6.801413306807919
Si      9.853611711483790      3.320289156933900      7.564561048394506
C      10.948457457204210      4.295781648840006      6.801413306807919
Si     12.043303202924632      5.509980648374742      7.564561048394506
C      13.138148948645053      6.485473140280848      6.801413306807919
Si     14.232994694365475      7.699672139815585      7.564561048394506
C       0.000000000000000      2.106090157399163      2.422030323926235
Si      1.094845745720421      3.320289156933900      3.185178065512822
C       2.189691491440842      4.295781648840006      2.422030323926235
Si      3.284537237161263      5.509980648374742      3.185178065512822
C       4.379382982881684      6.485473140280848      2.422030323926235
Si      5.474228728602105      7.699672139815585      3.185178065512822
C       6.569074474322527      8.675164631721691      2.422030323926235
Si      7.663920220042947      9.889363631256426      3.185178065512822
C       2.189691491440842      2.106090157399163      4.611721815367076
Si      3.284537237161263      3.320289156933900      5.374869556953663
C       4.379382982881684      4.295781648840006      4.611721815367076
Si      5.474228728602105      5.509980648374742      5.374869556953663
C       6.569074474322527      6.485473140280848      4.611721815367076
Si      7.663920220042947      7.699672139815585      5.374869556953663
C       8.758765965763368      8.675164631721691      4.611721815367076
Si      9.853611711483790      9.889363631256426      5.374869556953663
C       4.379382982881684      2.106090157399163      6.801413306807919
Si      5.474228728602105      3.320289156933900      7.564561048394506
C       6.569074474322527      4.295781648840006      6.801413306807919
Si      7.663920220042947      5.509980648374742      7.564561048394506
C       8.758765965763368      6.485473140280848      6.801413306807919
Si      9.853611711483790      7.699672139815585      7.564561048394506
C      10.948457457204210      8.675164631721691      6.801413306807919
Si     12.043303202924632      9.889363631256426      7.564561048394506
C       6.569074474322527      2.106090157399163      8.991104798248761
Si      7.663920220042947      3.320289156933900      9.754252539835349
C       8.758765965763368      4.295781648840006      8.991104798248761
Si      9.853611711483790      5.509980648374742      9.754252539835349
C      10.948457457204210      6.485473140280848      8.991104798248761
Si     12.043303202924632      7.699672139815585      9.754252539835349
C      13.138148948645053      8.675164631721691      8.991104798248761
Si     14.232994694365475      9.889363631256426      9.754252539835349
C       0.000000000000000      4.295781648840006      4.611721815367076
Si      1.094845745720421      5.509980648374742      5.374869556953663
C       2.189691491440842      6.485473140280848      4.611721815367076
Si      3.284537237161263      7.699672139815585      5.374869556953663
C       4.379382982881684      8.675164631721691      4.611721815367076
Si      5.474228728602105      9.889363631256426      5.374869556953663
C       6.569074474322527     10.864856123162532      4.611721815367076
Si      7.663920220042947     12.079055122697268      5.374869556953663
C       2.189691491440842      4.295781648840006      6.801413306807919
Si      3.284537237161263      5.509980648374742      7.564561048394506
C       4.379382982881684      6.485473140280848      6.801413306807919
Si      5.474228728602105      7.699672139815585      7.564561048394506
C       6.569074474322527      8.675164631721691      6.801413306807919
Si      7.663920220042947      9.889363631256426      7.564561048394506
C       8.758765965763368     10.864856123162532      6.801413306807919
Si      9.853611711483790     12.079055122697268      7.564561048394506
C       4.379382982881684      4.295781648840006      8.991104798248761
Si      5.474228728602105      5.509980648374742      9.754252539835349
C       6.569074474322527      6.485473140280848      8.991104798248761
Si      7.663920220042947      7.699672139815585      9.754252539835349
C       8.758765965763368      8.675164631721691      8.991104798248761
Si      9.853611711483790      9.889363631256426      9.754252539835349
C      10.948457457204210     10.864856123162532      8.991104798248761
Si     12.043303202924632     12.079055122697268      9.754252539835349
C       6.569074474322527      4.295781648840006     11.180796289689603
Si      7.663920220042947      5.509980648374742     11.943944031276191
C       8.758765965763368      6.485473140280848     11.180796289689603
Si      9.853611711483790      7.699672139815585     11.943944031276191
C      10.948457457204210      8.675164631721691     11.180796289689603
Si     12.043303202924632      9.889363631256426     11.943944031276191
C      13.138148948645053     10.864856123162532     11.180796289689603
Si     14.232994694365475     12.079055122697268     11.943944031276191
C       0.000000000000000      6.485473140280848      6.801413306807919
Si      1.094845745720421      7.699672139815585      7.564561048394506
C       2.189691491440842      8.675164631721691      6.801413306807919
Si      3.284537237161263      9.889363631256426      7.564561048394506
C       4.379382982881684     10.864856123162532      6.801413306807919
Si      5.474228728602105     12.079055122697268      7.564561048394506
C       6.569074474322527     13.054547614603376      6.801413306807919
Si      7.663920220042947     14.268746614138111      7.564561048394506
C       2.189691491440842      6.485473140280848      8.991104798248761
Si      3.284537237161263      7.699672139815585      9.754252539835349
C       4.379382982881684      8.675164631721691      8.991104798248761
Si      5.474228728602105      9.889363631256426      9.754252539835349
C       6.569074474322527     10.864856123162532      8.991104798248761
Si      7.663920220042947     12.079055122697268      9.754252539835349
C       8.758765965763368     13.054547614603376      8.991104798248761
Si      9.853611711483790     14.268746614138111      9.754252539835349
C       4.379382982881684      6.485473140280848     11.180796289689603
Si      5.474228728602105      7.699672139815585     11.943944031276191
C       6.569074474322527      8.675164631721691     11.180796289689603
Si      7.663920220042947      9.889363631256426     11.943944031276191
C       8.758765965763368     10.864856123162532     11.180796289689603
Si      9.853611711483790     12.079055122697268     11.943944031276191
C      10.948457457204210     13.054547614603376     11.180796289689603
Si     12.043303202924632     14.268746614138111     11.943944031276191
C       6.569074474322527      6.485473140280848     13.370487781130446
Si      7.663920220042947      7.699672139815585     14.133635522717034
C       8.758765965763368      8.675164631721691     13.370487781130446
Si      9.853611711483790      9.889363631256426     14.133635522717034
C      10.948457457204210     10.864856123162532     13.370487781130446
Si     12.043303202924632     12.079055122697268     14.133635522717034
C      13.138148948645053     13.054547614603376     13.370487781130446
Si     14.232994694365475     14.268746614138111     14.133635522717034
128

C       0.000000000000000     -0.080500690595778      0.223721746568857
Si      1.094845745720421      1.129271682397308      0.999171651204939
C       2.189691491440842      2.109190800845064      0.223721746568857
Si      3.284537237161263      3.318963173838150      0.999171651204939
C       4.379382982881684      4.298882292285906      0.223721746568857
Si      5.474228728602105      5.508654665278992      0.999171651204939
C       6.569074474322527      6.488573783726749      0.223721746568857
Si      7.663920220042947      7.698346156719834      0.999171651204939
C       2.189691491440842     -0.080500690595778      2.413413238009699
Si      3.284537237161263      1.129271682397308      3.188863142645781
C       4.379382982881684      2.109190800845064      2.413413238009699
Si      5.474228728602105      3.318963173838150      3.188863142645781
C       6.569074474322527      4.298882292285906      2.413413238009699
Si      7.663920220042947      5.508654665278992      3.188863142645781
C       8.758765965763368      6.488573783726749      2.413413238009699
Si      9.853611711483790      7.698346156719834      3.188863142645781
C       4.379382982881684     -0.080500690595778      4.603104729450542
Si      5.474228728602105      1.129271682397308      5.378554634086623
C       6.569074474322527      2.109190800845064      4.603104729450542
Si      7.663920220042947      3.318963173838150      5.378554634086623
C       8.758765965763368      4.298882292285906      4.603104729450542
Si      9.853611711483790      5.508654665278992      5.378554634086623
C      10.948457457204210      6.488573783726749      4.603104729450542
Si     12.043303202924632      7.698346156719834      5.378554634086623
C       6.569074474322527     -0.080500690595778      6.792796220891384
Si      7.663920220042947      1.129271682397308      7.568246125527465
C       8.758765965763368      2.109190800845064      6.792796220891384
Si      9.853611711483790      3.318963173838150      7.568246125527465
C      10.948457457204210      4.298882292285906      6.792796220891384
Si     12.043303202924632      5.508654665278992      7.568246125527465
C      13.138148948645053      6.488573783726749      6.792796220891384
Si     14.232994694365475      7.698346156719834      7.568246125527465
C       0.000000000000000      2.109190800845064      2.413413238009699
Si      1.094845745720421      3.318963173838150      3.188863142645781
C       2.189691491440842      4.298882292285906      2.413413238009699
Si      3.284537237161263      5.508654665278992      3.188863142645781
C       4.379382982881684      6.488573783726749      2.413413238009699
Si      5.474228728602105      7.698346156719834      3.188863142645781
C       6.569074474322527      8.678265275167591      2.413413238009699
Si      7.663920220042947      9.888037648160678      3.188863142645781
C       2.189691491440842      2.109190800845064      4.603104729450542
Si      3.284537237161263      3.318963173838150      5.378554634086623
C       4.379382982881684      4.298882292285906      4.603104729450542
Si      5.474228728602105      5.508654665278992      5.378554634086623
C       6.569074474322527      6.488573783726749      4.603104729450542
Si      7.663920220042947      7.698346156719834      5.378554634086623
C       8.758765965763368      8.678265275167591      4.603104729450542
Si      9.853611711483790      9.888037648160678      5.378554634086623
C       4.379382982881684      2.109190800845064      6.792796220891384
Si      5.474228728602105      3.318963173838150      7.568246125527465
C       6.569074474322527      4.298882292285906      6.792796220891384
Si      7.663920220042947      5.508654665278992      7.568246125527465
C       8.758765965763368      6.488573783726749      6.792796220891384
Si      9.853611711483790      7.698346156719834      7.568246125527465
C      10.948457457204210      8.678265275167591      6.792796220891384
Si     12.043303202924632      9.888037648160678      7.568246125527465
C       6.569074474322527      2.109190800845064      8.982487712332226
Si      7.663920220042947      3.318963173838150      9.757937616968308
C       8.758765965763368      4.298882292285906      8.982487712332226
Si      9.853611711483790      5.508654665278992      9.757937616968308
C      10.948457457204210      6.488573783726749      8.982487712332226
Si     12.043303202924632      7.698346156719834      9.757937616968308
C      13.138148948645053      8.678265275167591      8.982487712332226
Si     14.232994694365475      9.888037648160678      9.757937616968308
C       0.000000000000000      4.298882292285906      4.603104729450542
Si      1.094845745720421      5.508654665278992      5.378554634086623
C       2.189691491440842      6.488573783726749      4.603104729450542
Si      3.284537237161263      7.698346156719834      5.378554634086623
C       4.379382982881684      8.678265275167591      4.603104729450542
Si      5.474228728602105      9.888037648160678      5.378554634086623
C       6.569074474322527     10.867956766608433      4.603104729450542
Si      7.663920220042947     12.077729139601519      5.378554634086623
C       2.189691491440842      4.298882292285906      6.792796220891384
Si      3.284537237161263      5.508654665278992      7.568246125527465
C       4.379382982881684      6.488573783726749      6.792796220891384
Si      5.474228728602105      7.698346156719834      7.568246125527465
C       6.569074474322527      8.678265275167591      6.792796220891384
Si      7.663920220042947      9.888037648160678      7.568246125527465
C       8.758765965763368     10.867956766608433      6.792796220891384
Si      9.853611711483790     12.077729139601519      7.568246125527465
C       4.379382982881684      4.298882292285906      8.982487712332226
Si      5.474228728602105      5.508654665278992      9.757937616968308
C       6.569074474322527      6.488573783726749      8.982487712332226
Si      7.663920220042947      7.698346156719834      9.757937616968308
C       8.758765965763368      8.678265275167591      8.982487712332226
Si      9.853611711483790      9.888037648160678      9.757937616968308
C      10.948457457204210     10.867956766608433      8.982487712332226
Si     12.043303202924632     12.077729139601519      9.757937616968308
C       6.569074474322527      4.298882292285906     11.172179203773068
Si      7.663920220042947      5.508654665278992     11.947629108409149
C       8.758765965763368      6.488573783726749     11.172179203773068
Si      9.853611711483790      7.698346156719834     11.947629108409149
C      10.948457457204210      8.678265275167591     11.172179203773068
Si     12.043303202924632      9.888037648160678     11.947629108409149
C      13.138148948645053     10.867956766608433     11.172179203773068
Si     14.232994694365475     12.077729139601519     11.947629108409149
C       0.000000000000000      6.488573783726749      6.792796220891384
Si      1.094845745720421      7.698346156719834      7.568246125527465
C       2.189691491440842      8.678265275167591      6.792796220891384
Si      3.284537237161263      9.888037648160678      7.568246125527465
C       4.379382982881684     10.867956766608433      6.792796220891384
Si      5.474228728602105     12.077729139601519      7.568246125527465
C       6.569074474322527     13.057648258049277      6.792796220891384
Si      7.663920220042947     14.267420631042363      7.568246125527465
C       2.189691491440842      6.488573783726749      8.982487712332226
Si      3.284537237161263      7.698346156719834      9.757937616968308
C       4.379382982881684      8.678265275167591      8.982487712332226
Si      5.474228728602105      9.888037648160678      9.757937616968308
C       6.569074474322527     10.867956766608433      8.982487712332226
Si      7.663920220042947     12.077729139601519      9.757937616968308
C       8.758765965763368     13.057648258049277      8.982487712332226
Si      9.853611711483790     14.267420631042363      9.757937616968308
C       4.379382982881684      6.488573783726749     11.172179203773068
Si      5.474228728602105      7.698346156719834     11.947629108409149
C       6.569074474322527      8.678265275167591     11.172179203773068
Si      7.663920220042947      9.888037648160678     11.947629108409149
C       8.758765965763368     10.867956766608433     11.172179203773068
Si      9.853611711483790     12.077729139601519     11.947629108409149
C      10.948457457204210     13.057648258049277     11.172179203773068
Si     12.043303202924632     14.267420631042363     11.947629108409149
C       6.569074474322527      6.488573783726749     13.361870695213911
Si      7.663920220042947      7.698346156719834     14.137320599849993
C       8.758765965763368      8.678265275167591     13.361870695213911
Si      9.853611711483790      9.888037648160678     14.137320599849993
C      10.948457457204210     10.867956766608433     13.361870695213911
Si     12.043303202924632     12.077729139601519     14.137320599849993
C      13.138148948645053     13.057648258049277     13.361870695213911
Si     14.232994694365475     14.267420631042363     14.137320599849993
128

C       0.000000000000000     -0.075417852980934      0.209595888761889
Si      1.094845745720421      1.127098018487440      1.005212542068985
C       2.189691491440842      2.114273638459908      0.209595888761889
Si      3.284537237161263      3.316789509928282      1.005212542068985
C       4.379382982881684      4.303965129900750      0.209595888761889
Si      5.474228728602105      5.506481001369123      1.005212542068985
C       6.569074474322527      6.493656621341593      0.209595888761889
Si      7.663920220042947      7.696172492809966      1.005212542068985
C       2.189691491440842     -0.075417852980934      2.399287380202731
Si      3.284537237161263      1.127098018487440      3.194904033509827
C       4.379382982881684      2.114273638459908      2.399287380202731
Si      5.474228728602105      3.316789509928282      3.194904033509827
C       6.569074474322527      4.303965129900750      2.399287380202731
Si      7.663920220042947      5.506481001369123      3.194904033509827
C       8.758765965763368      6.493656621341593      2.399287380202731
Si      9.853611711483790      7.696172492809966      3.194904033509827
C       4.379382982881684     -0.075417852980934      4.588978871643573
Si      5.474228728602105      1.127098018487440      5.384595524950669
C       6.569074474322527      2.114273638459908      4.588978871643573
Si      7.663920220042947      3.316789509928282      5.384595524950669
C       8.758765965763368      4.303965129900750      4.588978871643573
Si      9.853611711483790      5.506481001369123      5.384595524950669
C      10.948457457204210      6.493656621341593      4.588978871643573
Si     12.043303202924632      7.696172492809966      5.384595524950669
C       6.569074474322527     -0.075417852980934      6.778670363084416
Si      7.663920220042947      1.127098018487440      7.574287016391511
C       8.758765965763368      2.114273638459908      6.778670363084416
Si      9.853611711483790      3.316789509928282      7.574287016391511
C      10.948457457204210      4.303965129900750      6.778670363084416
Si     12.043303202924632      5.506481001369123      7.574287016391511
C      13.138148948645053      6.493656621341593      6.778670363084416
Si     14.232994694365475      7.696172492809966      7.574287016391511
C       0.000000000000000      2.114273638459908      2.399287380202731
Si      1.094845745720421      3.316789509928282      3.194904033509827
C       2.189691491440842      4.303965129900750      2.399287380202731
Si      3.284537237161263      5.506481001369123      3.194904033509827
C       4.379382982881684      6.493656621341593      2.399287380202731
Si      5.474228728602105      7.696172492809966      3.194904033509827
C       6.569074474322527      8.683348112782435      2.399287380202731
Si      7.663920220042947      9.885863984250809      3.194904033509827
C       2.189691491440842      2.114273638459908      4.588978871643573
Si      3.284537237161263      3.316789509928282      5.384595524950669
C       4.379382982881684      4.303965129900750      4.588978871643573
Si      5.474228728602105      5.506481001369123      5.384595524950669
C       6.569074474322527      6.493656621341593      4.588978871643573
Si      7.663920220042947      7.696172492809966      5.384595524950669
C       8.758765965763368      8.683348112782435      4.588978871643573
Si      9.853611711483790      9.885863984250809      5.384595524950669
C       4.379382982881684      2.114273638459908      6.778670363084416
Si      5.474228728602105      3.316789509928282      7.574287016391511
C       6.569074474322527      4.303965129900750      6.778670363084416
Si      7.663920220042947      5.506481001369123      7.574287016391511
C       8.758765965763368      6.493656621341593      6.778670363084416
Si      9.853611711483790      7.696172492809966      7.574287016391511
C      10.948457457204210      8.683348112782435      6.778670363084416
Si     12.043303202924632      9.885863984250809      7.574287016391511
C       6.569074474322527      2.114273638459908      8.968361854525257
Si      7.663920220042947      3.316789509928282      9.763978507832354
C       8.758765965763368      4.303965129900750      8.968361854525257
Si      9.853611711483790      5.506481001369123      9.763978507832354
C      10.948457457204210      6.493656621341593      8.968361854525257
Si     12.043303202924632      7.696172492809966      9.763978507832354
C      13.138148948645053      8.683348112782435      8.968361854525257
Si     14.232994694365475      9.885863984250809      9.763978507832354
C       0.000000000000000      4.303965129900750      4.588978871643573
Si      1.094845745720421      5.506481001369123      5.384595524950669
C       2.189691491440842      6.493656621341593      4.588978871643573
Si      3.284537237161263      7.696172492809966      5.384595524950669
C       4.379382982881684      8.683348112782435      4.588978871643573
Si      5.474228728602105      9.885863984250809      5.384595524950669
C       6.569074474322527     10.873039604223276      4.588978871643573
Si      7.663920220042947     12.075555475691651      5.384595524950669
C       2.189691491440842      4.303965129900750      6.778670363084416
Si      3.284537237161263      5.506481001369123      7.574287016391511
C       4.379382982881684      6.493656621341593      6.778670363084416
Si      5.474228728602105      7.696172492809966      7.574287016391511
C       6.569074474322527      8.683348112782435      6.778670363084416
Si      7.663920220042947      9.885863984250809      7.574287016391511
C       8.758765965763368     10.873039604223276      6.778670363084416
Si      9.853611711483790     12.075555475691651      7.574287016391511
C       4.379382982881684      4.303965129900750      8.968361854525257
Si      5.474228728602105      5.506481001369123      9.763978507832354
C       6.569074474322527      6.493656621341593      8.968361854525257
Si      7.663920220042947      7.696172492809966      9.763978507832354
C       8.758765965763368      8.683348112782435      8.968361854525257
Si      9.853611711483790      9.885863984250809      9.763978507832354
C      10.948457457204210     10.873039604223276      8.968361854525257
Si     12.043303202924632     12.075555475691651      9.763978507832354
C       6.569074474322527      4.303965129900750     11.158053345966099
Si      7.663920220042947      5.506481001369123     11.953669999273195
C       8.758765965763368      6.493656621341593     11.158053345966099
Si      9.853611711483790      7.696172492809966     11.953669999273195
C      10.948457457204210      8.683348112782435     11.158053345966099
Si     12.043303202924632      9.885863984250809     11.953669999273195
C      13.138148948645053     10.873039604223276     11.158053345966099
Si     14.232994694365475     12.075555475691651     11.953669999273195
C       0.000000000000000      6.493656621341593      6.778670363084416
Si      1.094845745720421      7.696172492809966      7.574287016391511
C       2.189691491440842      8.683348112782435      6.778670363084416
Si      3.284537237161263      9.885863984250809      7.574287016391511
C       4.379382982881684     10.873039604223276      6.778670363084416
Si      5.474228728602105     12.075555475691651      7.574287016391511
C       6.569074474322527     13.062731095664120      6.778670363084416
Si      7.663920220042947     14.265246967132494      7.574287016391511
C       2.189691491440842      6.493656621341593      8.968361854525257
Si      3.284537237161263      7.696172492809966      9.763978507832354
C       4.379382982881684      8.683348112782435      8.968361854525257
Si      5.474228728602105      9.885863984250809      9.763978507832354
C       6.569074474322527     10.873039604223276      8.968361854525257
Si      7.663920220042947     12.075555475691651      9.763978507832354
C       8.758765965763368     13.062731095664120      8.968361854525257
Si      9.853611711483790     14.265246967132494      9.763978507832354
C       4.379382982881684      6.493656621341593     11.158053345966099
Si      5.474228728602105      7.696172492809966     11.953669999273195
C       6.569074474322527      8.683348112782435     11.158053345966099
Si      7.663920220042947      9.885863984250809     11.953669999273195
C       8.758765965763368     10.873039604223276     11.158053345966099
Si      9.853611711483790     12.075555475691651     11.953669999273195
C      10.948457457204210     13.062731095664120     11.158053345966099
Si     12.043303202924632     14.265246967132494     11.953669999273195
C       6.569074474322527      6.493656621341593     13.347744837406943
Si      7.663920220042947      7.696172492809966     14.143361490714039
C       8.758765965763368      8.683348112782435     13.347744837406943
Si      9.853611711483790      9.885863984250809     14.143361490714039
C      10.948457457204210     10.873039604223276     13.347744837406943
Si     12.043303202924632     12.075555475691651     14.143361490714039
C      13.138148948645053     13.062731095664120     13.347744837406943
Si     14.232994694365475     14.265246967132494     14.143361490714039
128

C       0.000000000000000     -0.068477977528196      0.190309084564729
Si      1.094845745720421      1.124130196582891      1.013460499882477
C       2.189691491440842      2.121213513912647      0.190309084564729
Si      3.284537237161263      3.313821688023733      1.013460499882477
C       4.379382982881684      4.310905005353488      0.190309084564729
Si      5.474228728602105      5.503513179464575      1.013460499882477
C       6.569074474322527      6.500596496794331      0.190309084564729
Si      7.663920220042947      7.693204670905417      1.013460499882477
C       2.189691491440842     -0.068477977528196      2.380000576005571
Si      3.284537237161263      1.124130196582891      3.203151991323319
C       4.379382982881684      2.121213513912647      2.380000576005571
Si      5.474228728602105      3.313821688023733      3.203151991323319
C       6.569074474322527      4.310905005353488      2.380000576005571
Si      7.663920220042947      5.503513179464575      3.203151991323319
C       8.758765965763368      6.500596496794331      2.380000576005571
Si      9.853611711483790      7.693204670905417      3.203151991323319
C       4.379382982881684     -0.068477977528196      4.569692067446413
Si      5.474228728602105      1.124130196582891      5.392843482764160
C       6.569074474322527      2.121213513912647      4.569692067446413
Si      7.663920220042947      3.313821688023733      5.392843482764160
C       8.758765965763368      4.310905005353488      4.569692067446413
Si      9.853611711483790      5.503513179464575      5.392843482764160
C      10.948457457204210      6.500596496794331      4.569692067446413
Si     12.043303202924632      7.693204670905417      5.392843482764160
C       6.569074474322527     -0.068477977528196      6.759383558887255
Si      7.663920220042947      1.124130196582891      7.582534974205003
C       8.758765965763368      2.121213513912647      6.759383558887255
Si      9.853611711483790      3.313821688023733      7.582534974205003
C      10.948457457204210      4.310905005353488      6.759383558887255
Si     12.043303202924632      5.503513179464575      7.582534974205003
C      13.138148948645053      6.500596496794331      6.759383558887255
Si     14.232994694365475      7.693204670905417      7.582534974205003
C       0.000000000000000      2.121213513912647      2.380000576005571
Si      1.094845745720421      3.313821688023733      3.203151991323319
C       2.189691491440842      4.310905005353488      2.380000576005571
Si      3.284537237161263      5.503513179464575      3.203151991323319
C       4.379382982881684      6.500596496794331      2.380000576005571
Si      5.474228728602105      7.693204670905417      3.203151991323319
C       6.569074474322527      8.690287988235173      2.380000576005571
Si      7.663920220042947      9.882896162346260      3.203151991323319
C       2.189691491440842      2.121213513912647      4.569692067446413
Si      3.284537237161263      3.313821688023733      5.392843482764160
C       4.379382982881684      4.310905005353488      4.569692067446413
Si      5.474228728602105      5.503513179464575      5.392843482764160
C       6.569074474322527      6.500596496794331      4.569692067446413
Si      7.663920220042947      7.693204670905417      5.392843482764160
C       8.758765965763368      8.690287988235173      4.569692067446413
Si      9.853611711483790      9.882896162346260      5.392843482764160
C       4.379382982881684      2.121213513912647      6.759383558887255
Si      5.474228728602105      3.313821688023733      7.582534974205003
C       6.569074474322527      4.310905005353488      6.759383558887255
Si      7.663920220042947      5.503513179464575      7.582534974205003
C       8.758765965763368      6.500596496794331      6.759383558887255
Si      9.853611711483790      7.693204670905417      7.582534974205003
C      10.948457457204210      8.690287988235173      6.759383558887255
Si     12.043303202924632      9.882896162346260      7.582534974205003
C       6.569074474322527      2.121213513912647      8.949075050328098
Si      7.663920220042947      3.313821688023733      9.772226465645845
C       8.758765965763368      4.310905005353488      8.949075050328098
Si      9.853611711483790      5.503513179464575      9.772226465645845
C      10.948457457204210      6.500596496794331      8.949075050328098
Si     12.043303202924632      7.693204670905417      9.772226465645845
C      13.138148948645053      8.690287988235173      8.949075050328098
Si     14.232994694365475      9.882896162346260      9.772226465645845
C       0.000000000000000      4.310905005353488      4.569692067446413
Si      1.094845745720421      5.503513179464575      5.392843482764160
C       2.189691491440842      6.500596496794331      4.569692067446413
Si      3.284537237161263      7.693204670905417      5.392843482764160
C       4.379382982881684      8.690287988235173      4.569692067446413
Si      5.474228728602105      9.882896162346260      5.392843482764160
C       6.569074474322527     10.879979479676015      4.569692067446413
Si      7.663920220042947     12.072587653787101      5.392843482764160
C       2.189691491440842      4.310905005353488      6.759383558887255
Si      3.284537237161263      5.503513179464575      7.582534974205003
C       4.379382982881684      6.500596496794331      6.759383558887255
Si      5.474228728602105      7.693204670905417      7.582534974205003
C       6.569074474322527      8.690287988235173      6.759383558887255
Si      7.663920220042947      9.882896162346260      7.582534974205003
C       8.758765965763368     10.879979479676015      6.759383558887255
Si      9.853611711483790     12.072587653787101      7.582534974205003
C       4.379382982881684      4.310905005353488      8.949075050328098
Si      5.474228728602105      5.503513179464575      9.772226465645845
C       6.569074474322527      6.500596496794331      8.949075050328098
Si      7.663920220042947      7.693204670905417      9.772226465645845
C       8.758765965763368      8.690287988235173      8.949075050328098
Si      9.853611711483790      9.882896162346260      9.772226465645845
C      10.948457457204210     10.879979479676015      8.949075050328098
Si     12.043303202924632     12.072587653787101      9.772226465645845
C       6.569074474322527      4.310905005353488     11.138766541768939
Si      7.663920220042947      5.503513179464575     11.961917957086687
C       8.758765965763368      6.500596496794331     11.138766541768939
Si      9.853611711483790      7.693204670905417     11.961917957086687
C      10.948457457204210      8.690287988235173     11.138766541768939
Si     12.043303202924632      9.882896162346260     11.961917957086687
C      13.138148948645053     10.879979479676015     11.138766541768939
Si     14.232994694365475     12.072587653787101     11.961917957086687
C       0.000000000000000      6.500596496794331      6.759383558887255
Si      1.094845745720421      7.693204670905417      7.582534974205003
C       2.189691491440842      8.690287988235173      6.759383558887255
Si      3.284537237161263      9.882896162346260      7.582534974205003
C       4.379382982881684     10.879979479676015      6.759383558887255
Si      5.474228728602105     12.072587653787101      7.582534974205003
C       6.569074474322527     13.069670971116858      6.759383558887255
Si      7.663920220042947     14.262279145227945      7.582534974205003
C       2.189691491440842      6.500596496794331      8.949075050328098
Si      3.284537237161263      7.693204670905417      9.772226465645845
C       4.379382982881684      8.690287988235173      8.949075050328098
Si      5.474228728602105      9.882896162346260      9.772226465645845
C       6.569074474322527     10.879979479676015      8.949075050328098
Si      7.663920220042947     12.072587653787101      9.772226465645845
C       8.758765965763368     13.069670971116858      8.949075050328098
Si      9.853611711483790     14.262279145227945      9.772226465645845
C       4.379382982881684      6.500596496794331     11.138766541768939
Si      5.474228728602105      7.693204670905417     11.961917957086687
C       6.569074474322527      8.690287988235173     11.138766541768939
Si      7.663920220042947      9.882896162346260     11.961917957086687
C       8.758765965763368     10.879979479676015     11.138766541768939
Si      9.853611711483790     12.072587653787101     11.961917957086687
C      10.948457457204210     13.069670971116858     11.138766541768939
Si     12.043303202924632     14.262279145227945     11.961917957086687
C       6.569074474322527      6.500596496794331     13.328458033209783
Si      7.663920220042947      7.693204670905417     14.151609448527530
C       8.758765965763368      8.690287988235173     13.328458033209783
Si      9.853611711483790      9.882896162346260     14.151609448527530
C      10.948457457204210     10.879979479676015     13.328458033209783
Si     12.043303202924632     12.072587653787101     14.151609448527530
C      13.138148948645053     13.069670971116858     13.328458033209783
Si     14.232994694365475     14.262279145227945     14.151609448527530
128

C       0.000000000000000     -0.059851947003336      0.166336239105944
Si      1.094845745720421      1.120441294308588      1.023712432550644
C       2.189691491440842      2.129839544437507      0.166336239105944
Si      3.284537237161263      3.310132785749430      1.023712432550644
C       4.379382982881684      4.319531035878349      0.166336239105944
Si      5.474228728602105      5.499824277190272      1.023712432550644
C       6.569074474322527      6.509222527319191      0.166336239105944
Si      7.663920220042947      7.689515768631114      1.023712432550644
C       2.189691491440842     -0.059851947003336      2.356027730546787
Si      3.284537237161263      1.120441294308588      3.213403923991486
C       4.379382982881684      2.129839544437507      2.356027730546787
Si      5.474228728602105      3.310132785749430      3.213403923991486
C       6.569074474322527      4.319531035878349      2.356027730546787
Si      7.663920220042947      5.499824277190272      3.213403923991486
C       8.758765965763368      6.509222527319191      2.356027730546787
Si      9.853611711483790      7.689515768631114      3.213403923991486
C       4.379382982881684     -0.059851947003336      4.545719221987628
Si      5.474228728602105      1.120441294308588      5.403095415432328
C       6.569074474322527      2.129839544437507      4.545719221987628
Si      7.663920220042947      3.310132785749430      5.403095415432328
C       8.758765965763368      4.319531035878349      4.545719221987628
Si      9.853611711483790      5.499824277190272      5.403095415432328
C      10.948457457204210      6.509222527319191      4.545719221987628
Si     12.043303202924632      7.689515768631114      5.403095415432328
C       6.569074474322527     -0.059851947003336      6.735410713428471
Si      7.663920220042947      1.120441294308588      7.592786906873171
C       8.758765965763368      2.129839544437507      6.735410713428471
Si      9.853611711483790      3.310132785749430      7.592786906873171
C      10.948457457204210      4.319531035878349      6.735410713428471
Si     12.043303202924632      5.499824277190272      7.592786906873171
C      13.138148948645053      6.509222527319191      6.735410713428471
Si     14.232994694365475      7.689515768631114      7.592786906873171
C       0.000000000000000      2.129839544437507      2.356027730546787
Si      1.094845745720421      3.310132785749430      3.213403923991486
C       2.189691491440842      4.319531035878349      2.356027730546787
Si      3.284537237161263      5.499824277190272      3.213403923991486
C       4.379382982881684      6.509222527319191      2.356027730546787
Si      5.474228728602105      7.689515768631114      3.213403923991486
C       6.569074474322527      8.698914018760032      2.356027730546787
Si      7.663920220042947      9.879207260071958      3.213403923991486
C       2.189691491440842      2.129839544437507      4.545719221987628
Si      3.284537237161263      3.310132785749430      5.403095415432328
C       4.379382982881684      4.319531035878349      4.545719221987628
Si      5.474228728602105      5.499824277190272      5.403095415432328
C       6.569074474322527      6.509222527319191      4.545719221987628
Si      7.663920220042947      7.689515768631114      5.403095415432328
C       8.758765965763368      8.698914018760032      4.545719221987628
Si      9.853611711483790      9.879207260071958      5.403095415432328
C       4.379382982881684      2.129839544437507      6.735410713428471
Si      5.474228728602105      3.310132785749430      7.592786906873171
C       6.569074474322527      4.319531035878349      6.735410713428471
Si      7.663920220042947      5.499824277190272      7.592786906873171
C       8.758765965763368      6.509222527319191      6.735410713428471
Si      9.853611711483790      7.689515768631114      7.592786906873171
C      10.948457457204210      8.698914018760032      6.735410713428471
Si     12.043303202924632      9.879207260071958      7.592786906873171
C       6.569074474322527      2.129839544437507      8.925102204869313
Si      7.663920220042947      3.310132785749430      9.782478398314012
C       8.758765965763368      4.319531035878349      8.925102204869313
Si      9.853611711483790      5.499824277190272      9.782478398314012
C      10.948457457204210      6.509222527319191      8.925102204869313
Si     12.043303202924632      7.689515768631114      9.782478398314012
C      13.138148948645053      8.698914018760032      8.925102204869313
Si     14.232994694365475      9.879207260071958      9.782478398314012
C       0.000000000000000      4.319531035878349      4.545719221987628
Si      1.094845745720421      5.499824277190272      5.403095415432328
C       2.189691491440842      6.509222527319191      4.545719221987628
Si      3.284537237161263      7.689515768631114      5.403095415432328
C       4.379382982881684      8.698914018760032      4.545719221987628
Si      5.474228728602105      9.879207260071958      5.403095415432328
C       6.569074474322527     10.888605510200874      4.545719221987628
Si      7.663920220042947     12.068898751512799      5.403095415432328
C       2.189691491440842      4.319531035878349      6.735410713428471
Si      3.284537237161263      5.499824277190272      7.592786906873171
C       4.379382982881684      6.509222527319191      6.735410713428471
Si      5.474228728602105      7.689515768631114      7.592786906873171
C       6.569074474322527      8.698914018760032      6.735410713428471
Si      7.663920220042947      9.879207260071958      7.592786906873171
C       8.758765965763368     10.888605510200874      6.735410713428471
Si      9.853611711483790     12.068898751512799      7.592786906873171
C       4.379382982881684      4.319531035878349      8.925102204869313
Si      5.474228728602105      5.499824277190272      9.782478398314012
C       6.569074474322527      6.509222527319191      8.925102204869313
Si      7.663920220042947      7.689515768631114      9.782478398314012
C       8.758765965763368      8.698914018760032      8.925102204869313
Si      9.853611711483790      9.879207260071958      9.782478398314012
C      10.948457457204210     10.888605510200874      8.925102204869313
Si     12.043303202924632     12.068898751512799      9.782478398314012
C       6.569074474322527      4.319531035878349     11.114793696310155
Si      7.663920220042947      5.499824277190272     11.972169889754856
C       8.758765965763368      6.509222527319191     11.114793696310155
Si      9.853611711483790      7.689515768631114     11.972169889754856
C      10.948457457204210      8.698914018760032     11.114793696310155
Si     12.043303202924632      9.879207260071958     11.972169889754856
C      13.138148948645053     10.888605510200874     11.114793696310155
Si     14.232994694365475     12.068898751512799     11.972169889754856
C       0.000000000000000      6.509222527319191      6.735410713428471
Si      1.094845745720421      7.689515768631114      7.592786906873171
C       2.189691491440842      8.698914018760032      6.735410713428471
Si      3.284537237161263      9.879207260071958      7.592786906873171
C       4.379382982881684     10.888605510200874      6.735410713428471
Si      5.474228728602105     12.068898751512799      7.592786906873171
C       6.569074474322527     13.078297001641717      6.735410713428471
Si      7.663920220042947     14.258590242953643      7.592786906873171
C       2.189691491440842      6.509222527319191      8.925102204869313
Si      3.284537237161263      7.689515768631114      9.782478398314012
C       4.379382982881684      8.698914018760032      8.925102204869313
Si      5.474228728602105      9.879207260071958      9.782478398314012
C       6.569074474322527     10.888605510200874      8.925102204869313
Si      7.663920220042947     12.068898751512799      9.782478398314012
C       8.758765965763368     13.078297001641717      8.925102204869313
Si      9.853611711483790     14.258590242953643      9.782478398314012
C       4.379382982881684      6.509222527319191     11.114793696310155
Si      5.474228728602105      7.689515768631114     11.972169889754856
C       6.569074474322527      8.698914018760032     11.114793696310155
Si      7.663920220042947      9.879207260071958     11.972169889754856
C       8.758765965763368     10.888605510200874     11.114793696310155
Si      9.853611711483790     12.068898751512799     11.972169889754856
C      10.948457457204210     13.078297001641717     11.114793696310155
Si     12.043303202924632     14.258590242953643     11.972169889754856
C       6.569074474322527      6.509222527319191     13.304485187750998
Si      7.663920220042947      7.689515768631114     14.161861381195699
C       8.758765965763368      8.698914018760032     13.304485187750998
Si      9.853611711483790      9.879207260071958     14.161861381195699
C      10.948457457204210     10.888605510200874     13.304485187750998
Si     12.043303202924632     12.068898751512799     14.161861381195699
C      13.138148948645053     13.078297001641717     13.304485187750998
Si     14.232994694365475     14.258590242953643     14.161861381195699
128

C       0.000000000000000     -0.049752162906030      0.138267643402044
Si      1.094845745720421      1.116122144681289      1.035715903466983
C       2.189691491440842      2.139939328534813      0.138267643402044
Si      3.284537237161263      3.305813636122131      1.035715903466983
C       4.379382982881684      4.329630819975654      0.138267643402044
Si      5.474228728602105      5.495505127562972      1.035715903466983
C       6.569074474322527      6.519322311416497      0.138267643402044
Si      7.663920220042947      7.685196619003815      1.035715903466983
C       2.189691491440842     -0.049752162906030      2.327959134842886
Si      3.284537237161263      1.116122144681289      3.225407394907825
C       4.379382982881684      2.139939328534813      2.327959134842886
Si      5.474228728602105      3.305813636122131      3.225407394907825
C       6.569074474322527      4.329630819975654      2.327959134842886
Si      7.663920220042947      5.495505127562972      3.225407394907825
C       8.758765965763368      6.519322311416497      2.327959134842886
Si      9.853611711483790      7.685196619003815      3.225407394907825
C       4.379382982881684     -0.049752162906030      4.517650626283729
Si      5.474228728602105      1.116122144681289      5.415098886348667
C       6.569074474322527      2.139939328534813      4.517650626283729
Si      7.663920220042947      3.305813636122131      5.415098886348667
C       8.758765965763368      4.329630819975654      4.517650626283729
Si      9.853611711483790      5.495505127562972      5.415098886348667
C      10.948457457204210      6.519322311416497      4.517650626283729
Si     12.043303202924632      7.685196619003815      5.415098886348667
C       6.569074474322527     -0.049752162906030      6.707342117724570
Si      7.663920220042947      1.116122144681289      7.604790377789509
C       8.758765965763368      2.139939328534813      6.707342117724570
Si      9.853611711483790      3.305813636122131      7.604790377789509
C      10.948457457204210      4.329630819975654      6.707342117724570
Si     12.043303202924632      5.495505127562972      7.604790377789509
C      13.138148948645053      6.519322311416497      6.707342117724570
Si     14.232994694365475      7.685196619003815      7.604790377789509
C       0.000000000000000      2.139939328534813      2.327959134842886
Si      1.094845745720421      3.305813636122131      3.225407394907825
C       2.189691491440842      4.329630819975654      2.327959134842886
Si      3.284537237161263      5.495505127562972      3.225407394907825
C       4.379382982881684      6.519322311416497      2.327959134842886
Si      5.474228728602105      7.685196619003815      3.225407394907825
C       6.569074474322527      8.709013802857339      2.327959134842886
Si      7.663920220042947      9.874888110444658      3.225407394907825
C       2.189691491440842      2.139939328534813      4.517650626283729
Si      3.284537237161263      3.305813636122131      5.415098886348667
C       4.379382982881684      4.329630819975654      4.517650626283729
Si      5.474228728602105      5.495505127562972      5.415098886348667
C       6.569074474322527      6.519322311416497      4.517650626283729
Si      7.663920220042947      7.685196619003815      5.415098886348667
C       8.758765965763368      8.709013802857339      4.517650626283729
Si      9.853611711483790      9.874888110444658      5.415098886348667
C       4.379382982881684      2.139939328534813      6.707342117724570
Si      5.474228728602105      3.305813636122131      7.604790377789509
C       6.569074474322527      4.329630819975654      6.707342117724570
Si      7.663920220042947      5.495505127562972      7.604790377789509
C       8.758765965763368      6.519322311416497      6.707342117724570
Si      9.853611711483790      7.685196619003815      7.604790377789509
C      10.948457457204210      8.709013802857339      6.707342117724570
Si     12.043303202924632      9.874888110444658      7.604790377789509
C       6.569074474322527      2.139939328534813      8.897033609165412
Si      7.663920220042947      3.305813636122131      9.794481869230353
C       8.758765965763368      4.329630819975654      8.897033609165412
Si      9.853611711483790      5.495505127562972      9.794481869230353
C      10.948457457204210      6.519322311416497      8.897033609165412
Si     12.043303202924632      7.685196619003815      9.794481869230353
C      13.138148948645053      8.709013802857339      8.897033609165412
Si     14.232994694365475      9.874888110444658      9.794481869230353
C       0.000000000000000      4.329630819975654      4.517650626283729
Si      1.094845745720421      5.495505127562972      5.415098886348667
C       2.189691491440842      6.519322311416497      4.517650626283729
Si      3.284537237161263      7.685196619003815      5.415098886348667
C       4.379382982881684      8.709013802857339      4.517650626283729
Si      5.474228728602105      9.874888110444658      5.415098886348667
C       6.569074474322527     10.898705294298180      4.517650626283729
Si      7.663920220042947     12.064579601885500      5.415098886348667
C       2.189691491440842      4.329630819975654      6.707342117724570
Si      3.284537237161263      5.495505127562972      7.604790377789509
C       4.379382982881684      6.519322311416497      6.707342117724570
Si      5.474228728602105      7.685196619003815      7.604790377789509
C       6.569074474322527      8.709013802857339      6.707342117724570
Si      7.663920220042947      9.874888110444658      7.604790377789509
C       8.758765965763368     10.898705294298180      6.707342117724570
Si      9.853611711483790     12.064579601885500      7.604790377789509
C       4.379382982881684      4.329630819975654      8.897033609165412
Si      5.474228728602105      5.495505127562972      9.794481869230353
C       6.569074474322527      6.519322311416497      8.897033609165412
Si      7.663920220042947      7.685196619003815      9.794481869230353
C       8.758765965763368      8.709013802857339      8.897033609165412
Si      9.853611711483790      9.874888110444658      9.794481869230353
C      10.948457457204210     10.898705294298180      8.897033609165412
Si     12.043303202924632     12.064579601885500      9.794481869230353
C       6.569074474322527      4.329630819975654     11.086725100606253
Si      7.663920220042947      5.495505127562972     11.984173360671194
C       8.758765965763368      6.519322311416497     11.086725100606253
Si      9.853611711483790      7.685196619003815     11.984173360671194
C      10.948457457204210      8.709013802857339     11.086725100606253
Si     12.043303202924632      9.874888110444658     11.984173360671194
C      13.138148948645053     10.898705294298180     11.086725100606253
Si     14.232994694365475     12.064579601885500     11.984173360671194
C       0.000000000000000      6.519322311416497      6.707342117724570
Si      1.094845745720421      7.685196619003815      7.604790377789509
C       2.189691491440842      8.709013802857339      6.707342117724570
Si      3.284537237161263      9.874888110444658      7.604790377789509
C       4.379382982881684     10.898705294298180      6.707342117724570
Si      5.474228728602105     12.064579601885500      7.604790377789509
C       6.569074474322527     13.088396785739024      6.707342117724570
Si      7.663920220042947     14.254271093326343      7.604790377789509
C       2.189691491440842      6.519322311416497      8.897033609165412
Si      3.284537237161263      7.685196619003815      9.794481869230353
C       4.379382982881684      8.709013802857339      8.897033609165412
Si      5.474228728602105      9.874888110444658      9.794481869230353
C       6.569074474322527     10.898705294298180      8.897033609165412
Si      7.663920220042947     12.064579601885500      9.794481869230353
C       8.758765965763368     13.088396785739024      8.897033609165412
Si      9.853611711483790     14.254271093326343      9.794481869230353
C       4.379382982881684      6.519322311416497     11.086725100606253
Si      5.474228728602105      7.685196619003815     11.984173360671194
C       6.569074474322527      8.709013802857339     11.086725100606253
Si      7.663920220042947      9.874888110444658     11.984173360671194
C       8.758765965763368     10.898705294298180     11.086725100606253
Si      9.853611711483790     12.064579601885500     11.984173360671194
C      10.948457457204210     13.088396785739024     11.086725100606253
Si     12.043303202924632     14.254271093326343     11.984173360671194
C       6.569074474322527      6.519322311416497     13.276416592047097
Si      7.663920220042947      7.685196619003815     14.173864852112038
C       8.758765965763368      8.709013802857339     13.276416592047097
Si      9.853611711483790      9.874888110444658     14.173864852112038
C      10.948457457204210     10.898705294298180     13.276416592047097
Si     12.043303202924632     12.064579601885500     14.173864852112038
C      13.138148948645053     13.088396785739024     13.276416592047097
Si     14.232994694365475     14.254271093326343     14.173864852112038
128

C       0.000000000000000     -0.038427315440015      0.106794439433586
Si      1.094845745720421      1.111279099499253      1.049175347340297
C       2.189691491440842      2.151264176000827      0.106794439433586
Si      3.284537237161263      3.300970590940095      1.049175347340297
C       4.379382982881684      4.340955667441669      0.106794439433586
Si      5.474228728602105      5.490662082380937      1.049175347340297
C       6.569074474322527      6.530647158882512      0.106794439433586
Si      7.663920220042947      7.680353573821780      1.049175347340297
C       2.189691491440842     -0.038427315440015      2.296485930874428
Si      3.284537237161263      1.111279099499253      3.238866838781139
C       4.379382982881684      2.151264176000827      2.296485930874428
Si      5.474228728602105      3.300970590940095      3.238866838781139
C       6.569074474322527      4.340955667441669      2.296485930874428
Si      7.663920220042947      5.490662082380937      3.238866838781139
C       8.758765965763368      6.530647158882512      2.296485930874428
Si      9.853611711483790      7.680353573821780      3.238866838781139
C       4.379382982881684     -0.038427315440015      4.486177422315270
Si      5.474228728602105      1.111279099499253      5.428558330221981
C       6.569074474322527      2.151264176000827      4.486177422315270
Si      7.663920220042947      3.300970590940095      5.428558330221981
C       8.758765965763368      4.340955667441669      4.486177422315270
Si      9.853611711483790      5.490662082380937      5.428558330221981
C      10.948457457204210      6.530647158882512      4.486177422315270
Si     12.043303202924632      7.680353573821780      5.428558330221981
C       6.569074474322527     -0.038427315440015      6.675868913756112
Si      7.663920220042947      1.111279099499253      7.618249821662824
C       8.758765965763368      2.151264176000827      6.675868913756112
Si      9.853611711483790      3.300970590940095      7.618249821662824
C      10.948457457204210      4.340955667441669      6.675868913756112
Si     12.043303202924632      5.490662082380937      7.618249821662824
C      13.138148948645053      6.530647158882512      6.675868913756112
Si     14.232994694365475      7.680353573821780      7.618249821662824
C       0.000000000000000      2.151264176000827      2.296485930874428
Si      1.094845745720421      3.300970590940095      3.238866838781139
C       2.189691491440842      4.340955667441669      2.296485930874428
Si      3.284537237161263      5.490662082380937      3.238866838781139
C       4.379382982881684      6.530647158882512      2.296485930874428
Si      5.474228728602105      7.680353573821780      3.238866838781139
C       6.569074474322527      8.720338650323352      2.296485930874428
Si      7.663920220042947      9.870045065262621      3.238866838781139
C       2.189691491440842      2.151264176000827      4.486177422315270
Si      3.284537237161263      3.300970590940095      5.428558330221981
C       4.379382982881684      4.340955667441669      4.486177422315270
Si      5.474228728602105      5.490662082380937      5.428558330221981
C       6.569074474322527      6.530647158882512      4.486177422315270
Si      7.663920220042947      7.680353573821780      5.428558330221981
C       8.758765965763368      8.720338650323352      4.486177422315270
Si      9.853611711483790      9.870045065262621      5.428558330221981
C       4.379382982881684      2.151264176000827      6.675868913756112
Si      5.474228728602105      3.300970590940095      7.618249821662824
C       6.569074474322527      4.340955667441669      6.675868913756112
Si      7.663920220042947      5.490662082380937      7.618249821662824
C       8.758765965763368      6.530647158882512      6.675868913756112
Si      9.853611711483790      7.680353573821780      7.618249821662824
C      10.948457457204210      8.720338650323352      6.675868913756112
Si     12.043303202924632      9.870045065262621      7.618249821662824
C       6.569074474322527      2.151264176000827      8.865560405196954
Si      7.663920220042947      3.300970590940095      9.807941313103667
C       8.758765965763368      4.340955667441669      8.865560405196954
Si      9.853611711483790      5.490662082380937      9.807941313103667
C      10.948457457204210      6.530647158882512      8.865560405196954
Si     12.043303202924632      7.680353573821780      9.807941313103667
C      13.138148948645053      8.720338650323352      8.865560405196954
Si     14.232994694365475      9.870045065262621      9.807941313103667
C       0.000000000000000      4.340955667441669      4.486177422315270
Si      1.094845745720421      5.490662082380937      5.428558330221981
C       2.189691491440842      6.530647158882512      4.486177422315270
Si      3.284537237161263      7.680353573821780      5.428558330221981
C       4.379382982881684      8.720338650323352      4.486177422315270
Si      5.474228728602105      9.870045065262621      5.428558330221981
C       6.569074474322527     10.910030141764194      4.486177422315270
Si      7.663920220042947     12.059736556703463      5.428558330221981
C       2.189691491440842      4.340955667441669      6.675868913756112
Si      3.284537237161263      5.490662082380937      7.618249821662824
C       4.379382982881684      6.530647158882512      6.675868913756112
Si      5.474228728602105      7.680353573821780      7.618249821662824
C       6.569074474322527      8.720338650323352      6.675868913756112
Si      7.663920220042947      9.870045065262621      7.618249821662824
C       8.758765965763368     10.910030141764194      6.675868913756112
Si      9.853611711483790     12.059736556703463      7.618249821662824
C       4.379382982881684      4.340955667441669      8.865560405196954
Si      5.474228728602105      5.490662082380937      9.807941313103667
C       6.569074474322527      6.530647158882512      8.865560405196954
Si      7.663920220042947      7.680353573821780      9.807941313103667
C       8.758765965763368      8.720338650323352      8.865560405196954
Si      9.853611711483790      9.870045065262621      9.807941313103667
C      10.948457457204210     10.910030141764194      8.865560405196954
Si     12.043303202924632     12.059736556703463      9.807941313103667
C       6.569074474322527      4.340955667441669     11.055251896637795
Si      7.663920220042947      5.490662082380937     11.997632804544509
C       8.758765965763368      6.530647158882512     11.055251896637795
Si      9.853611711483790      7.680353573821780     11.997632804544509
C      10.948457457204210      8.720338650323352     11.055251896637795
Si     12.043303202924632      9.870045065262621     11.997632804544509
C      13.138148948645053     10.910030141764194     11.055251896637795
Si     14.232994694365475     12.059736556703463     11.997632804544509
C       0.000000000000000      6.530647158882512      6.675868913756112
Si      1.094845745720421      7.680353573821780      7.618249821662824
C       2.189691491440842      8.720338650323352      6.675868913756112
Si      3.284537237161263      9.870045065262621      7.618249821662824
C       4.379382982881684     10.910030141764194      6.675868913756112
Si      5.474228728602105     12.059736556703463      7.618249821662824
C       6.569074474322527     13.099721633205037      6.675868913756112
Si      7.663920220042947     14.249428048144306      7.618249821662824
C       2.189691491440842      6.530647158882512      8.865560405196954
Si      3.284537237161263      7.680353573821780      9.807941313103667
C       4.379382982881684      8.720338650323352      8.865560405196954
Si      5.474228728602105      9.870045065262621      9.807941313103667
C       6.569074474322527     10.910030141764194      8.865560405196954
Si      7.663920220042947     12.059736556703463      9.807941313103667
C       8.758765965763368     13.099721633205037      8.865560405196954
Si      9.853611711483790     14.249428048144306      9.807941313103667
C       4.379382982881684      6.530647158882512     11.055251896637795
Si      5.474228728602105      7.680353573821780     11.997632804544509
C       6.569074474322527      8.720338650323352     11.055251896637795
Si      7.663920220042947      9.870045065262621     11.997632804544509
C       8.758765965763368     10.910030141764194     11.055251896637795
Si      9.853611711483790     12.059736556703463     11.997632804544509
C      10.948457457204210     13.099721633205037     11.055251896637795
Si     12.043303202924632     14.249428048144306     11.997632804544509
C       6.569074474322527      6.530647158882512     13.244943388078639
Si      7.663920220042947      7.680353573821780     14.187324295985352
C       8.758765965763368      8.720338650323352     13.244943388078639
Si      9.853611711483790      9.870045065262621     14.187324295985352
C      10.948457457204210     10.910030141764194     13.244943388078639
Si     12.043303202924632     12.059736556703463     14.187324295985352
C      13.138148948645053     13.099721633205037     13.244943388078639
Si     14.232994694365475     14.249428048144306     14.187324295985352
128

C       0.000000000000000     -0.026156259934919      0.072691601935848
Si      1.094845745720421      1.106031410608008      1.063759347993092
C       2.189691491440842      2.163535231505923      0.072691601935848
Si      3.284537237161263      3.295722902048851      1.063759347993092
C       4.379382982881684      4.353226722946765      0.072691601935848
Si      5.474228728602105      5.485414393489692      1.063759347993092
C       6.569074474322527      6.542918214387607      0.072691601935848
Si      7.663920220042947      7.675105884930534      1.063759347993092
C       2.189691491440842     -0.026156259934919      2.262383093376691
Si      3.284537237161263      1.106031410608008      3.253450839433934
C       4.379382982881684      2.163535231505923      2.262383093376691
Si      5.474228728602105      3.295722902048851      3.253450839433934
C       6.569074474322527      4.353226722946765      2.262383093376691
Si      7.663920220042947      5.485414393489692      3.253450839433934
C       8.758765965763368      6.542918214387607      2.262383093376691
Si      9.853611711483790      7.675105884930534      3.253450839433934
C       4.379382982881684     -0.026156259934919      4.452074584817533
Si      5.474228728602105      1.106031410608008      5.443142330874776
C       6.569074474322527      2.163535231505923      4.452074584817533
Si      7.663920220042947      3.295722902048851      5.443142330874776
C       8.758765965763368      4.353226722946765      4.452074584817533
Si      9.853611711483790      5.485414393489692      5.443142330874776
C      10.948457457204210      6.542918214387607      4.452074584817533
Si     12.043303202924632      7.675105884930534      5.443142330874776
C       6.569074474322527     -0.026156259934919      6.641766076258375
Si      7.663920220042947      1.106031410608008      7.632833822315619
C       8.758765965763368      2.163535231505923      6.641766076258375
Si      9.853611711483790      3.295722902048851      7.632833822315619
C      10.948457457204210      4.353226722946765      6.641766076258375
Si     12.043303202924632      5.485414393489692      7.632833822315619
C      13.138148948645053      6.542918214387607      6.641766076258375
Si     14.232994694365475      7.675105884930534      7.632833822315619
C       0.000000000000000      2.163535231505923      2.262383093376691
Si      1.094845745720421      3.295722902048851      3.253450839433934
C       2.189691491440842      4.353226722946765      2.262383093376691
Si      3.284537237161263      5.485414393489692      3.253450839433934
C       4.379382982881684      6.542918214387607      2.262383093376691
Si      5.474228728602105      7.675105884930534      3.253450839433934
C       6.569074474322527      8.732609705828448      2.262383093376691
Si      7.663920220042947      9.864797376371378      3.253450839433934
C       2.189691491440842      2.163535231505923      4.452074584817533
Si      3.284537237161263      3.295722902048851      5.443142330874776
C       4.379382982881684      4.353226722946765      4.452074584817533
Si      5.474228728602105      5.485414393489692      5.443142330874776
C       6.569074474322527      6.542918214387607      4.452074584817533
Si      7.663920220042947      7.675105884930534      5.443142330874776
C       8.758765965763368      8.732609705828448      4.452074584817533
Si      9.853611711483790      9.864797376371378      5.443142330874776
C       4.379382982881684      2.163535231505923      6.641766076258375
Si      5.474228728602105      3.295722902048851      7.632833822315619
C       6.569074474322527      4.353226722946765      6.641766076258375
Si      7.663920220042947      5.485414393489692      7.632833822315619
C       8.758765965763368      6.542918214387607      6.641766076258375
Si      9.853611711483790      7.675105884930534      7.632833822315619
C      10.948457457204210      8.732609705828448      6.641766076258375
Si     12.043303202924632      9.864797376371378      7.632833822315619
C       6.569074474322527      2.163535231505923      8.831457567699216
Si      7.663920220042947      3.295722902048851      9.822525313756461
C       8.758765965763368      4.353226722946765      8.831457567699216
Si      9.853611711483790      5.485414393489692      9.822525313756461
C      10.948457457204210      6.542918214387607      8.831457567699216
Si     12.043303202924632      7.675105884930534      9.822525313756461
C      13.138148948645053      8.732609705828448      8.831457567699216
Si     14.232994694365475      9.864797376371378      9.822525313756461
C       0.000000000000000      4.353226722946765      4.452074584817533
Si      1.094845745720421      5.485414393489692      5.443142330874776
C       2.189691491440842      6.542918214387607      4.452074584817533
Si      3.284537237161263      7.675105884930534      5.443142330874776
C       4.379382982881684      8.732609705828448      4.452074584817533
Si      5.474228728602105      9.864797376371378      5.443142330874776
C       6.569074474322527     10.922301197269290      4.452074584817533
Si      7.663920220042947     12.054488867812220      5.443142330874776
C       2.189691491440842      4.353226722946765      6.641766076258375
Si      3.284537237161263      5.485414393489692      7.632833822315619
C       4.379382982881684      6.542918214387607      6.641766076258375
Si      5.474228728602105      7.675105884930534      7.632833822315619
C       6.569074474322527      8.732609705828448      6.641766076258375
Si      7.663920220042947      9.864797376371378      7.632833822315619
C       8.758765965763368     10.922301197269290      6.641766076258375
Si      9.853611711483790     12.054488867812220      7.632833822315619
C       4.379382982881684      4.353226722946765      8.831457567699216
Si      5.474228728602105      5.485414393489692      9.822525313756461
C       6.569074474322527      6.542918214387607      8.831457567699216
Si      7.663920220042947      7.675105884930534      9.822525313756461
C       8.758765965763368      8.732609705828448      8.831457567699216
Si      9.853611711483790      9.864797376371378      9.822525313756461
C      10.948457457204210     10.922301197269290      8.831457567699216
Si     12.043303202924632     12.054488867812220      9.822525313756461
C       6.569074474322527      4.353226722946765     11.021149059140058
Si      7.663920220042947      5.485414393489692     12.012216805197303
C       8.758765965763368      6.542918214387607     11.021149059140058
Si      9.853611711483790      7.675105884930534     12.012216805197303
C      10.948457457204210      8.732609705828448     11.021149059140058
Si     12.043303202924632      9.864797376371378     12.012216805197303
C      13.138148948645053     10.922301197269290     11.021149059140058
Si     14.232994694365475     12.054488867812220     12.012216805197303
C       0.000000000000000      6.542918214387607      6.641766076258375
Si      1.094845745720421      7.675105884930534      7.632833822315619
C       2.189691491440842      8.732609705828448      6.641766076258375
Si      3.284537237161263      9.864797376371378      7.632833822315619
C       4.379382982881684     10.922301197269290      6.641766076258375
Si      5.474228728602105     12.054488867812220      7.632833822315619
C       6.569074474322527     13.111992688710133      6.641766076258375
Si      7.663920220042947     14.244180359253063      7.632833822315619
C       2.189691491440842      6.542918214387607      8.831457567699216
Si      3.284537237161263      7.675105884930534      9.822525313756461
C       4.379382982881684      8.732609705828448      8.831457567699216
Si      5.474228728602105      9.864797376371378      9.822525313756461
C       6.569074474322527     10.922301197269290      8.831457567699216
Si      7.663920220042947     12.054488867812220      9.822525313756461
C       8.758765965763368     13.111992688710133      8.831457567699216
Si      9.853611711483790     14.244180359253063      9.822525313756461
C       4.379382982881684      6.542918214387607     11.021149059140058
Si      5.474228728602105      7.675105884930534     12.012216805197303
C       6.569074474322527      8.732609705828448     11.021149059140058
Si      7.663920220042947      9.864797376371378     12.012216805197303
C       8.758765965763368     10.922301197269290     11.021149059140058
Si      9.853611711483790     12.054488867812220     12.012216805197303
C      10.948457457204210     13.111992688710133     11.021149059140058
Si     12.043303202924632     14.244180359253063     12.012216805197303
C       6.569074474322527      6.542918214387607     13.210840550580901
Si      7.663920220042947      7.675105884930534     14.201908296638146
C       8.758765965763368      8.732609705828448     13.210840550580901
Si      9.853611711483790      9.864797376371378     14.201908296638146
C      10.948457457204210     10.922301197269290     13.210840550580901
Si     12.043303202924632     12.054488867812220     14.201908296638146
C      13.138148948645053     13.111992688710133     13.210840550580901
Si     14.232994694365475     14.244180359253063     14.201908296638146
128

C       0.000000000000000     -0.013241150502576      0.036798855948855
Si      1.094845745720421      1.100508293524138      1.079108798927773
C       2.189691491440842      2.176450340938266      0.036798855948855
Si      3.284537237161263      3.290199784964980      1.079108798927773
C       4.379382982881684      4.366141832379109      0.036798855948855
Si      5.474228728602105      5.479891276405822      1.079108798927773
C       6.569074474322527      6.555833323819951      0.036798855948855
Si      7.663920220042947      7.669582767846665      1.079108798927773
C       2.189691491440842     -0.013241150502576      2.226490347389697
Si      3.284537237161263      1.100508293524138      3.268800290368616
C       4.379382982881684      2.176450340938266      2.226490347389697
Si      5.474228728602105      3.290199784964980      3.268800290368616
C       6.569074474322527      4.366141832379109      2.226490347389697
Si      7.663920220042947      5.479891276405822      3.268800290368616
C       8.758765965763368      6.555833323819951      2.226490347389697
Si      9.853611711483790      7.669582767846665      3.268800290368616
C       4.379382982881684     -0.013241150502576      4.416181838830539
Si      5.474228728602105      1.100508293524138      5.458491781809457
C       6.569074474322527      2.176450340938266      4.416181838830539
Si      7.663920220042947      3.290199784964980      5.458491781809457
C       8.758765965763368      4.366141832379109      4.416181838830539
Si      9.853611711483790      5.479891276405822      5.458491781809457
C      10.948457457204210      6.555833323819951      4.416181838830539
Si     12.043303202924632      7.669582767846665      5.458491781809457
C       6.569074474322527     -0.013241150502576      6.605873330271382
Si      7.663920220042947      1.100508293524138      7.648183273250299
C       8.758765965763368      2.176450340938266      6.605873330271382
Si      9.853611711483790      3.290199784964980      7.648183273250299
C      10.948457457204210      4.366141832379109      6.605873330271382
Si     12.043303202924632      5.479891276405822      7.648183273250299
C      13.138148948645053      6.555833323819951      6.605873330271382
Si     14.232994694365475      7.669582767846665      7.648183273250299
C       0.000000000000000      2.176450340938266      2.226490347389697
Si      1.094845745720421      3.290199784964980      3.268800290368616
C       2.189691491440842      4.366141832379109      2.226490347389697
Si      3.284537237161263      5.479891276405822      3.268800290368616
C       4.379382982881684      6.555833323819951      2.226490347389697
Si      5.474228728602105      7.669582767846665      3.268800290368616
C       6.569074474322527      8.745524815260792      2.226490347389697
Si      7.663920220042947      9.859274259287506      3.268800290368616
C       2.189691491440842      2.176450340938266      4.416181838830539
Si      3.284537237161263      3.290199784964980      5.458491781809457
C       4.379382982881684      4.366141832379109      4.416181838830539
Si      5.474228728602105      5.479891276405822      5.458491781809457
C       6.569074474322527      6.555833323819951      4.416181838830539
Si      7.663920220042947      7.669582767846665      5.458491781809457
C       8.758765965763368      8.745524815260792      4.416181838830539
Si      9.853611711483790      9.859274259287506      5.458491781809457
C       4.379382982881684      2.176450340938266      6.605873330271382
Si      5.474228728602105      3.290199784964980      7.648183273250299
C       6.569074474322527      4.366141832379109      6.605873330271382
Si      7.663920220042947      5.479891276405822      7.648183273250299
C       8.758765965763368      6.555833323819951      6.605873330271382
Si      9.853611711483790      7.669582767846665      7.648183273250299
C      10.948457457204210      8.745524815260792      6.605873330271382
Si     12.043303202924632      9.859274259287506      7.648183273250299
C       6.569074474322527      2.176450340938266      8.795564821712224
Si      7.663920220042947      3.290199784964980      9.837874764691142
C       8.758765965763368      4.366141832379109      8.795564821712224
Si      9.853611711483790      5.479891276405822      9.837874764691142
C      10.948457457204210      6.555833323819951      8.795564821712224
Si     12.043303202924632      7.669582767846665      9.837874764691142
C      13.138148948645053      8.745524815260792      8.795564821712224
Si     14.232994694365475      9.859274259287506      9.837874764691142
C       0.000000000000000      4.366141832379109      4.416181838830539
Si      1.094845745720421      5.479891276405822      5.458491781809457
C       2.189691491440842      6.555833323819951      4.416181838830539
Si      3.284537237161263      7.669582767846665      5.458491781809457
C       4.379382982881684      8.745524815260792      4.416181838830539
Si      5.474228728602105      9.859274259287506      5.458491781809457
C       6.569074474322527     10.935216306701633      4.416181838830539
Si      7.663920220042947     12.048965750728348      5.458491781809457
C       2.189691491440842      4.366141832379109      6.605873330271382
Si      3.284537237161263      5.479891276405822      7.648183273250299
C       4.379382982881684      6.555833323819951      6.605873330271382
Si      5.474228728602105      7.669582767846665      7.648183273250299
C       6.569074474322527      8.745524815260792      6.605873330271382
Si      7.663920220042947      9.859274259287506      7.648183273250299
C       8.758765965763368     10.935216306701633      6.605873330271382
Si      9.853611711483790     12.048965750728348      7.648183273250299
C       4.379382982881684      4.366141832379109      8.795564821712224
Si      5.474228728602105      5.479891276405822      9.837874764691142
C       6.569074474322527      6.555833323819951      8.795564821712224
Si      7.663920220042947      7.669582767846665      9.837874764691142
C       8.758765965763368      8.745524815260792      8.795564821712224
Si      9.853611711483790      9.859274259287506      9.837874764691142
C      10.948457457204210     10.935216306701633      8.795564821712224
Si     12.043303202924632     12.048965750728348      9.837874764691142
C       6.569074474322527      4.366141832379109     10.985256313153066
Si      7.663920220042947      5.479891276405822     12.027566256131983
C       8.758765965763368      6.555833323819951     10.985256313153066
Si      9.853611711483790      7.669582767846665     12.027566256131983
C      10.948457457204210      8.745524815260792     10.985256313153066
Si     12.043303202924632      9.859274259287506     12.027566256131983
C      13.138148948645053     10.935216306701633     10.985256313153066
Si     14.232994694365475     12.048965750728348     12.027566256131983
C       0.000000000000000      6.555833323819951      6.605873330271382
Si      1.094845745720421      7.669582767846665      7.648183273250299
C       2.189691491440842      8.745524815260792      6.605873330271382
Si      3.284537237161263      9.859274259287506      7.648183273250299
C       4.379382982881684     10.935216306701633      6.605873330271382
Si      5.474228728602105     12.048965750728348      7.648183273250299
C       6.569074474322527     13.124907798142477      6.605873330271382
Si      7.663920220042947     14.238657242169191      7.648183273250299
C       2.189691491440842      6.555833323819951      8.795564821712224
Si      3.284537237161263      7.669582767846665      9.837874764691142
C       4.379382982881684      8.745524815260792      8.795564821712224
Si      5.474228728602105      9.859274259287506      9.837874764691142
C       6.569074474322527     10.935216306701633      8.795564821712224
Si      7.663920220042947     12.048965750728348      9.837874764691142
C       8.758765965763368     13.124907798142477      8.795564821712224
Si      9.853611711483790     14.238657242169191      9.837874764691142
C       4.379382982881684      6.555833323819951     10.985256313153066
Si      5.474228728602105      7.669582767846665     12.027566256131983
C       6.569074474322527      8.745524815260792     10.985256313153066
Si      7.663920220042947      9.859274259287506     12.027566256131983
C       8.758765965763368     10.935216306701633     10.985256313153066
Si      9.853611711483790     12.048965750728348     12.027566256131983
C      10.948457457204210     13.124907798142477     10.985256313153066
Si     12.043303202924632     14.238657242169191     12.027566256131983
C       6.569074474322527      6.555833323819951     13.174947804593909
Si      7.663920220042947      7.669582767846665     14.217257747572827
C       8.758765965763368      8.745524815260792     13.174947804593909
Si      9.853611711483790      9.859274259287506     14.217257747572827
C      10.948457457204210     10.935216306701633     13.174947804593909
Si     12.043303202924632     12.048965750728348     14.217257747572827
C      13.138148948645053     13.124907798142477     13.174947804593909
Si     14.232994694365475     14.238657242169191     14.217257747572827
